%%MatrixMarket matrix coordinate pattern general
1773 1226 45613
89 45
90 45
91 45
92 45
93 45
94 45
95 45
96 45
97 45
98 45
99 45
100 45
101 45
102 45
103 45
104 45
105 45
106 45
107 45
108 45
109 45
110 45
111 45
112 45
113 45
114 45
115 45
116 45
117 45
118 45
119 45
120 45
121 45
122 45
123 45
124 45
125 45
126 45
127 45
128 45
129 45
130 45
131 45
132 45
133 45
134 45
135 45
136 45
137 45
138 45
139 45
140 45
141 45
142 45
143 45
144 45
145 45
146 45
147 45
148 45
149 45
89 46
90 46
91 46
92 46
93 46
94 46
95 46
96 46
97 46
98 46
99 46
100 46
101 46
102 46
103 46
104 46
105 46
106 46
107 46
108 46
109 46
110 46
111 46
112 46
113 46
114 46
115 46
116 46
117 46
118 46
119 46
120 46
121 46
122 46
123 46
124 46
125 46
126 46
127 46
128 46
129 46
130 46
131 46
132 46
133 46
134 46
135 46
136 46
137 46
138 46
139 46
140 46
141 46
142 46
143 46
144 46
145 46
146 46
147 46
148 46
149 46
89 47
90 47
91 47
92 47
93 47
94 47
95 47
96 47
97 47
98 47
99 47
100 47
101 47
102 47
103 47
104 47
105 47
106 47
107 47
108 47
109 47
110 47
111 47
112 47
113 47
114 47
115 47
116 47
117 47
118 47
119 47
120 47
121 47
122 47
123 47
124 47
125 47
126 47
127 47
128 47
129 47
130 47
131 47
132 47
133 47
134 47
135 47
136 47
137 47
138 47
139 47
140 47
141 47
142 47
143 47
144 47
145 47
146 47
147 47
148 47
149 47
89 48
90 48
91 48
92 48
93 48
94 48
95 48
96 48
97 48
98 48
99 48
100 48
101 48
102 48
103 48
104 48
105 48
106 48
107 48
108 48
109 48
110 48
111 48
112 48
113 48
114 48
115 48
116 48
117 48
118 48
119 48
120 48
121 48
122 48
123 48
124 48
125 48
126 48
127 48
128 48
129 48
130 48
131 48
132 48
133 48
134 48
135 48
136 48
137 48
138 48
139 48
140 48
141 48
142 48
143 48
144 48
145 48
146 48
147 48
148 48
149 48
89 49
90 49
91 49
92 49
93 49
94 49
95 49
96 49
97 49
98 49
99 49
100 49
101 49
102 49
103 49
104 49
105 49
106 49
107 49
108 49
109 49
110 49
111 49
112 49
113 49
114 49
115 49
116 49
117 49
118 49
119 49
120 49
121 49
122 49
123 49
124 49
125 49
126 49
127 49
128 49
129 49
130 49
131 49
132 49
133 49
134 49
135 49
136 49
137 49
138 49
139 49
140 49
141 49
142 49
143 49
144 49
145 49
146 49
147 49
148 49
149 49
89 50
90 50
91 50
92 50
93 50
94 50
95 50
96 50
97 50
98 50
99 50
100 50
101 50
102 50
103 50
104 50
105 50
106 50
107 50
108 50
109 50
110 50
111 50
112 50
113 50
114 50
115 50
116 50
117 50
118 50
119 50
120 50
121 50
122 50
123 50
124 50
125 50
126 50
127 50
128 50
129 50
130 50
131 50
132 50
133 50
134 50
135 50
136 50
137 50
138 50
139 50
140 50
141 50
142 50
143 50
144 50
145 50
146 50
147 50
148 50
149 50
89 51
90 51
91 51
92 51
93 51
94 51
95 51
96 51
97 51
98 51
99 51
100 51
101 51
102 51
103 51
104 51
105 51
106 51
107 51
108 51
109 51
110 51
111 51
112 51
113 51
114 51
115 51
116 51
117 51
118 51
119 51
120 51
121 51
122 51
123 51
124 51
125 51
126 51
127 51
128 51
129 51
130 51
131 51
132 51
133 51
134 51
135 51
136 51
137 51
138 51
139 51
140 51
141 51
142 51
143 51
144 51
145 51
146 51
147 51
148 51
149 51
89 52
90 52
91 52
92 52
93 52
94 52
95 52
96 52
97 52
98 52
99 52
100 52
101 52
102 52
103 52
104 52
105 52
106 52
107 52
108 52
109 52
110 52
111 52
112 52
113 52
114 52
115 52
116 52
117 52
118 52
119 52
120 52
121 52
122 52
123 52
124 52
125 52
126 52
127 52
128 52
129 52
130 52
131 52
132 52
133 52
134 52
135 52
136 52
137 52
138 52
139 52
140 52
141 52
142 52
143 52
144 52
145 52
146 52
147 52
148 52
149 52
89 53
90 53
91 53
92 53
93 53
94 53
95 53
96 53
97 53
98 53
99 53
100 53
101 53
102 53
103 53
104 53
105 53
106 53
107 53
108 53
109 53
110 53
111 53
112 53
113 53
114 53
115 53
116 53
117 53
118 53
119 53
120 53
121 53
122 53
123 53
124 53
125 53
126 53
127 53
128 53
129 53
130 53
131 53
132 53
133 53
134 53
135 53
136 53
137 53
138 53
139 53
140 53
141 53
142 53
143 53
144 53
145 53
146 53
147 53
148 53
149 53
89 54
90 54
91 54
92 54
93 54
94 54
95 54
96 54
97 54
98 54
99 54
100 54
101 54
102 54
103 54
104 54
105 54
106 54
107 54
108 54
109 54
110 54
111 54
112 54
113 54
114 54
115 54
116 54
117 54
118 54
119 54
120 54
121 54
122 54
123 54
124 54
125 54
126 54
127 54
128 54
129 54
130 54
131 54
132 54
133 54
134 54
135 54
136 54
137 54
138 54
139 54
140 54
141 54
142 54
143 54
144 54
145 54
146 54
147 54
148 54
149 54
89 55
90 55
91 55
92 55
93 55
94 55
95 55
96 55
97 55
98 55
99 55
100 55
101 55
102 55
103 55
104 55
105 55
106 55
107 55
108 55
109 55
110 55
111 55
112 55
113 55
114 55
115 55
116 55
117 55
118 55
119 55
120 55
121 55
122 55
123 55
124 55
125 55
126 55
127 55
128 55
129 55
130 55
131 55
132 55
133 55
134 55
135 55
136 55
137 55
138 55
139 55
140 55
141 55
142 55
143 55
144 55
145 55
146 55
147 55
148 55
149 55
89 56
90 56
91 56
92 56
93 56
94 56
95 56
96 56
97 56
98 56
99 56
100 56
101 56
102 56
103 56
104 56
105 56
106 56
107 56
108 56
109 56
110 56
111 56
112 56
113 56
114 56
115 56
116 56
117 56
118 56
119 56
120 56
121 56
122 56
123 56
124 56
125 56
126 56
127 56
128 56
129 56
130 56
131 56
132 56
133 56
134 56
135 56
136 56
137 56
138 56
139 56
140 56
141 56
142 56
143 56
144 56
145 56
146 56
147 56
148 56
149 56
89 57
90 57
91 57
92 57
93 57
94 57
95 57
96 57
97 57
98 57
99 57
100 57
101 57
102 57
103 57
104 57
105 57
106 57
107 57
108 57
109 57
110 57
111 57
112 57
113 57
114 57
115 57
116 57
117 57
118 57
119 57
120 57
121 57
122 57
123 57
124 57
125 57
126 57
127 57
128 57
129 57
130 57
131 57
132 57
133 57
134 57
135 57
136 57
137 57
138 57
139 57
140 57
141 57
142 57
143 57
144 57
145 57
146 57
147 57
148 57
149 57
89 58
90 58
91 58
92 58
93 58
94 58
95 58
96 58
97 58
98 58
99 58
100 58
101 58
102 58
103 58
104 58
105 58
106 58
107 58
108 58
109 58
110 58
111 58
112 58
113 58
114 58
115 58
116 58
117 58
118 58
119 58
120 58
121 58
122 58
123 58
124 58
125 58
126 58
127 58
128 58
129 58
130 58
131 58
132 58
133 58
134 58
135 58
136 58
137 58
138 58
139 58
140 58
141 58
142 58
143 58
144 58
145 58
146 58
147 58
148 58
149 58
89 59
90 59
91 59
92 59
93 59
94 59
95 59
96 59
97 59
98 59
99 59
100 59
101 59
102 59
103 59
104 59
105 59
106 59
107 59
108 59
109 59
110 59
111 59
112 59
113 59
114 59
115 59
116 59
117 59
118 59
119 59
120 59
121 59
122 59
123 59
124 59
125 59
126 59
127 59
128 59
129 59
130 59
131 59
132 59
133 59
134 59
135 59
136 59
137 59
138 59
139 59
140 59
141 59
142 59
143 59
144 59
145 59
146 59
147 59
148 59
149 59
89 60
90 60
91 60
92 60
93 60
94 60
95 60
96 60
97 60
98 60
99 60
100 60
101 60
102 60
103 60
104 60
105 60
106 60
107 60
108 60
109 60
110 60
111 60
112 60
113 60
114 60
115 60
116 60
117 60
118 60
119 60
120 60
121 60
122 60
123 60
124 60
125 60
126 60
127 60
128 60
129 60
130 60
131 60
132 60
133 60
134 60
135 60
136 60
137 60
138 60
139 60
140 60
141 60
142 60
143 60
144 60
145 60
146 60
147 60
148 60
149 60
89 61
90 61
91 61
92 61
93 61
94 61
95 61
96 61
97 61
98 61
99 61
100 61
101 61
102 61
103 61
104 61
105 61
106 61
107 61
108 61
109 61
110 61
111 61
112 61
113 61
114 61
115 61
116 61
117 61
118 61
119 61
120 61
121 61
122 61
123 61
124 61
125 61
126 61
127 61
128 61
129 61
130 61
131 61
132 61
133 61
134 61
135 61
136 61
137 61
138 61
139 61
140 61
141 61
142 61
143 61
144 61
145 61
146 61
147 61
148 61
149 61
89 62
90 62
91 62
92 62
93 62
94 62
95 62
96 62
97 62
98 62
99 62
100 62
101 62
102 62
103 62
104 62
105 62
106 62
107 62
108 62
109 62
110 62
111 62
112 62
113 62
114 62
115 62
116 62
117 62
118 62
119 62
120 62
121 62
122 62
123 62
124 62
125 62
126 62
127 62
128 62
129 62
130 62
131 62
132 62
133 62
134 62
135 62
136 62
137 62
138 62
139 62
140 62
141 62
142 62
143 62
144 62
145 62
146 62
147 62
148 62
149 62
89 63
90 63
91 63
92 63
93 63
94 63
95 63
96 63
97 63
98 63
99 63
100 63
101 63
102 63
103 63
104 63
105 63
106 63
107 63
108 63
109 63
110 63
111 63
112 63
113 63
114 63
115 63
116 63
117 63
118 63
119 63
120 63
121 63
122 63
123 63
124 63
125 63
126 63
127 63
128 63
129 63
130 63
131 63
132 63
133 63
134 63
135 63
136 63
137 63
138 63
139 63
140 63
141 63
142 63
143 63
144 63
145 63
146 63
147 63
148 63
149 63
89 64
90 64
91 64
92 64
93 64
94 64
95 64
96 64
97 64
98 64
99 64
100 64
101 64
102 64
103 64
104 64
105 64
106 64
107 64
108 64
109 64
110 64
111 64
112 64
113 64
114 64
115 64
116 64
117 64
118 64
119 64
120 64
121 64
122 64
123 64
124 64
125 64
126 64
127 64
128 64
129 64
130 64
131 64
132 64
133 64
134 64
135 64
136 64
137 64
138 64
139 64
140 64
141 64
142 64
143 64
144 64
145 64
146 64
147 64
148 64
149 64
89 65
90 65
91 65
92 65
93 65
94 65
95 65
96 65
97 65
98 65
99 65
100 65
101 65
102 65
103 65
104 65
105 65
106 65
107 65
108 65
109 65
110 65
111 65
112 65
113 65
114 65
115 65
116 65
117 65
118 65
119 65
120 65
121 65
122 65
123 65
124 65
125 65
126 65
127 65
128 65
129 65
130 65
131 65
132 65
133 65
134 65
135 65
136 65
137 65
138 65
139 65
140 65
141 65
142 65
143 65
144 65
145 65
146 65
147 65
148 65
149 65
89 66
90 66
91 66
92 66
93 66
94 66
95 66
96 66
97 66
98 66
99 66
100 66
101 66
102 66
103 66
104 66
105 66
106 66
107 66
108 66
109 66
110 66
111 66
112 66
113 66
114 66
115 66
116 66
117 66
118 66
119 66
120 66
121 66
122 66
123 66
124 66
125 66
126 66
127 66
128 66
129 66
130 66
131 66
132 66
133 66
134 66
135 66
136 66
137 66
138 66
139 66
140 66
141 66
142 66
143 66
144 66
145 66
146 66
147 66
148 66
149 66
89 67
90 67
91 67
92 67
93 67
94 67
95 67
96 67
97 67
98 67
99 67
100 67
101 67
102 67
103 67
104 67
105 67
106 67
107 67
108 67
109 67
110 67
111 67
112 67
113 67
114 67
115 67
116 67
117 67
118 67
119 67
120 67
121 67
122 67
123 67
124 67
125 67
126 67
127 67
128 67
129 67
130 67
131 67
132 67
133 67
134 67
135 67
136 67
137 67
138 67
139 67
140 67
141 67
142 67
143 67
144 67
145 67
146 67
147 67
148 67
149 67
89 68
90 68
91 68
92 68
93 68
94 68
95 68
96 68
97 68
98 68
99 68
100 68
101 68
102 68
103 68
104 68
105 68
106 68
107 68
108 68
109 68
110 68
111 68
112 68
113 68
114 68
115 68
116 68
117 68
118 68
119 68
120 68
121 68
122 68
123 68
124 68
125 68
126 68
127 68
128 68
129 68
130 68
131 68
132 68
133 68
134 68
135 68
136 68
137 68
138 68
139 68
140 68
141 68
142 68
143 68
144 68
145 68
146 68
147 68
148 68
149 68
89 69
90 69
91 69
92 69
93 69
94 69
95 69
96 69
97 69
98 69
99 69
100 69
101 69
102 69
103 69
104 69
105 69
106 69
107 69
108 69
109 69
110 69
111 69
112 69
113 69
114 69
115 69
116 69
117 69
118 69
119 69
120 69
121 69
122 69
123 69
124 69
125 69
126 69
127 69
128 69
129 69
130 69
131 69
132 69
133 69
134 69
135 69
136 69
137 69
138 69
139 69
140 69
141 69
142 69
143 69
144 69
145 69
146 69
147 69
148 69
149 69
89 70
90 70
91 70
92 70
93 70
94 70
95 70
96 70
97 70
98 70
99 70
100 70
101 70
102 70
103 70
104 70
105 70
106 70
107 70
108 70
109 70
110 70
111 70
112 70
113 70
114 70
115 70
116 70
117 70
118 70
119 70
120 70
121 70
122 70
123 70
124 70
125 70
126 70
127 70
128 70
129 70
130 70
131 70
132 70
133 70
134 70
135 70
136 70
137 70
138 70
139 70
140 70
141 70
142 70
143 70
144 70
145 70
146 70
147 70
148 70
149 70
89 71
90 71
91 71
92 71
93 71
94 71
95 71
96 71
97 71
98 71
99 71
100 71
101 71
102 71
103 71
104 71
105 71
106 71
107 71
108 71
109 71
110 71
111 71
112 71
113 71
114 71
115 71
116 71
117 71
118 71
119 71
120 71
121 71
122 71
123 71
124 71
125 71
126 71
127 71
128 71
129 71
130 71
131 71
132 71
133 71
134 71
135 71
136 71
137 71
138 71
139 71
140 71
141 71
142 71
143 71
144 71
145 71
146 71
147 71
148 71
149 71
89 72
90 72
91 72
92 72
93 72
94 72
95 72
96 72
97 72
98 72
99 72
100 72
101 72
102 72
103 72
104 72
105 72
106 72
107 72
108 72
109 72
110 72
111 72
112 72
113 72
114 72
115 72
116 72
117 72
118 72
119 72
120 72
121 72
122 72
123 72
124 72
125 72
126 72
127 72
128 72
129 72
130 72
131 72
132 72
133 72
134 72
135 72
136 72
137 72
138 72
139 72
140 72
141 72
142 72
143 72
144 72
145 72
146 72
147 72
148 72
149 72
89 73
90 73
91 73
92 73
93 73
94 73
95 73
96 73
97 73
98 73
99 73
100 73
101 73
102 73
103 73
104 73
105 73
106 73
107 73
108 73
109 73
110 73
111 73
112 73
113 73
114 73
115 73
116 73
117 73
118 73
119 73
120 73
121 73
122 73
123 73
124 73
125 73
126 73
127 73
128 73
129 73
130 73
131 73
132 73
133 73
134 73
135 73
136 73
137 73
138 73
139 73
140 73
141 73
142 73
143 73
144 73
145 73
146 73
147 73
148 73
149 73
89 74
90 74
91 74
92 74
93 74
94 74
95 74
96 74
97 74
98 74
99 74
100 74
101 74
102 74
103 74
104 74
105 74
106 74
107 74
108 74
109 74
110 74
111 74
112 74
113 74
114 74
115 74
116 74
117 74
118 74
119 74
120 74
121 74
122 74
123 74
124 74
125 74
126 74
127 74
128 74
129 74
130 74
131 74
132 74
133 74
134 74
135 74
136 74
137 74
138 74
139 74
140 74
141 74
142 74
143 74
144 74
145 74
146 74
147 74
148 74
149 74
89 75
90 75
91 75
92 75
93 75
94 75
95 75
96 75
97 75
98 75
99 75
100 75
101 75
102 75
103 75
104 75
105 75
106 75
107 75
108 75
109 75
110 75
111 75
112 75
113 75
114 75
115 75
116 75
117 75
118 75
119 75
120 75
121 75
122 75
123 75
124 75
125 75
126 75
127 75
128 75
129 75
130 75
131 75
132 75
133 75
134 75
135 75
136 75
137 75
138 75
139 75
140 75
141 75
142 75
143 75
144 75
145 75
146 75
147 75
148 75
149 75
89 76
90 76
91 76
92 76
93 76
94 76
95 76
96 76
97 76
98 76
99 76
100 76
101 76
102 76
103 76
104 76
105 76
106 76
107 76
108 76
109 76
110 76
111 76
112 76
113 76
114 76
115 76
116 76
117 76
118 76
119 76
120 76
121 76
122 76
123 76
124 76
125 76
126 76
127 76
128 76
129 76
130 76
131 76
132 76
133 76
134 76
135 76
136 76
137 76
138 76
139 76
140 76
141 76
142 76
143 76
144 76
145 76
146 76
147 76
148 76
149 76
89 77
90 77
91 77
92 77
93 77
94 77
95 77
96 77
97 77
98 77
99 77
100 77
101 77
102 77
103 77
104 77
105 77
106 77
107 77
108 77
109 77
110 77
111 77
112 77
113 77
114 77
115 77
116 77
117 77
118 77
119 77
120 77
121 77
122 77
123 77
124 77
125 77
126 77
127 77
128 77
129 77
130 77
131 77
132 77
133 77
134 77
135 77
136 77
137 77
138 77
139 77
140 77
141 77
142 77
143 77
144 77
145 77
146 77
147 77
148 77
149 77
89 78
90 78
91 78
92 78
93 78
94 78
95 78
96 78
97 78
98 78
99 78
100 78
101 78
102 78
103 78
104 78
105 78
106 78
107 78
108 78
109 78
110 78
111 78
112 78
113 78
114 78
115 78
116 78
117 78
118 78
119 78
120 78
121 78
122 78
123 78
124 78
125 78
126 78
127 78
128 78
129 78
130 78
131 78
132 78
133 78
134 78
135 78
136 78
137 78
138 78
139 78
140 78
141 78
142 78
143 78
144 78
145 78
146 78
147 78
148 78
149 78
89 79
90 79
91 79
92 79
93 79
94 79
95 79
96 79
97 79
98 79
99 79
100 79
101 79
102 79
103 79
104 79
105 79
106 79
107 79
108 79
109 79
110 79
111 79
112 79
113 79
114 79
115 79
116 79
117 79
118 79
119 79
120 79
121 79
122 79
123 79
124 79
125 79
126 79
127 79
128 79
129 79
130 79
131 79
132 79
133 79
134 79
135 79
136 79
137 79
138 79
139 79
140 79
141 79
142 79
143 79
144 79
145 79
146 79
147 79
148 79
149 79
89 80
90 80
91 80
92 80
93 80
94 80
95 80
96 80
97 80
98 80
99 80
100 80
101 80
102 80
103 80
104 80
105 80
106 80
107 80
108 80
109 80
110 80
111 80
112 80
113 80
114 80
115 80
116 80
117 80
118 80
119 80
120 80
121 80
122 80
123 80
124 80
125 80
126 80
127 80
128 80
129 80
130 80
131 80
132 80
133 80
134 80
135 80
136 80
137 80
138 80
139 80
140 80
141 80
142 80
143 80
144 80
145 80
146 80
147 80
148 80
149 80
89 81
90 81
91 81
92 81
93 81
94 81
95 81
96 81
97 81
98 81
99 81
100 81
101 81
102 81
103 81
104 81
105 81
106 81
107 81
108 81
109 81
110 81
111 81
112 81
113 81
114 81
115 81
116 81
117 81
118 81
119 81
120 81
121 81
122 81
123 81
124 81
125 81
126 81
127 81
128 81
129 81
130 81
131 81
132 81
133 81
134 81
135 81
136 81
137 81
138 81
139 81
140 81
141 81
142 81
143 81
144 81
145 81
146 81
147 81
148 81
149 81
89 82
90 82
91 82
92 82
93 82
94 82
95 82
96 82
97 82
98 82
99 82
100 82
101 82
102 82
103 82
104 82
105 82
106 82
107 82
108 82
109 82
110 82
111 82
112 82
113 82
114 82
115 82
116 82
117 82
118 82
119 82
120 82
121 82
122 82
123 82
124 82
125 82
126 82
127 82
128 82
129 82
130 82
131 82
132 82
133 82
134 82
135 82
136 82
137 82
138 82
139 82
140 82
141 82
142 82
143 82
144 82
145 82
146 82
147 82
148 82
149 82
89 83
90 83
91 83
92 83
93 83
94 83
95 83
96 83
97 83
98 83
99 83
100 83
101 83
102 83
103 83
104 83
105 83
106 83
107 83
108 83
109 83
110 83
111 83
112 83
113 83
114 83
115 83
116 83
117 83
118 83
119 83
120 83
121 83
122 83
123 83
124 83
125 83
126 83
127 83
128 83
129 83
130 83
131 83
132 83
133 83
134 83
135 83
136 83
137 83
138 83
139 83
140 83
141 83
142 83
143 83
144 83
145 83
146 83
147 83
148 83
149 83
89 84
90 84
91 84
92 84
93 84
94 84
95 84
96 84
97 84
98 84
99 84
100 84
101 84
102 84
103 84
104 84
105 84
106 84
107 84
108 84
109 84
110 84
111 84
112 84
113 84
114 84
115 84
116 84
117 84
118 84
119 84
120 84
121 84
122 84
123 84
124 84
125 84
126 84
127 84
128 84
129 84
130 84
131 84
132 84
133 84
134 84
135 84
136 84
137 84
138 84
139 84
140 84
141 84
142 84
143 84
144 84
145 84
146 84
147 84
148 84
149 84
89 85
90 85
91 85
92 85
93 85
94 85
95 85
96 85
97 85
98 85
99 85
100 85
101 85
102 85
103 85
104 85
105 85
106 85
107 85
108 85
109 85
110 85
111 85
112 85
113 85
114 85
115 85
116 85
117 85
118 85
119 85
120 85
121 85
122 85
123 85
124 85
125 85
126 85
127 85
128 85
129 85
130 85
131 85
132 85
133 85
134 85
135 85
136 85
137 85
138 85
139 85
140 85
141 85
142 85
143 85
144 85
145 85
146 85
147 85
148 85
149 85
89 86
90 86
91 86
92 86
93 86
94 86
95 86
96 86
97 86
98 86
99 86
100 86
101 86
102 86
103 86
104 86
105 86
106 86
107 86
108 86
109 86
110 86
111 86
112 86
113 86
114 86
115 86
116 86
117 86
118 86
119 86
120 86
121 86
122 86
123 86
124 86
125 86
126 86
127 86
128 86
129 86
130 86
131 86
132 86
133 86
134 86
135 86
136 86
137 86
138 86
139 86
140 86
141 86
142 86
143 86
144 86
145 86
146 86
147 86
148 86
149 86
89 87
90 87
91 87
92 87
93 87
94 87
95 87
96 87
97 87
98 87
99 87
100 87
101 87
102 87
103 87
104 87
105 87
106 87
107 87
108 87
109 87
110 87
111 87
112 87
113 87
114 87
115 87
116 87
117 87
118 87
119 87
120 87
121 87
122 87
123 87
124 87
125 87
126 87
127 87
128 87
129 87
130 87
131 87
132 87
133 87
134 87
135 87
136 87
137 87
138 87
139 87
140 87
141 87
142 87
143 87
144 87
145 87
146 87
147 87
148 87
149 87
89 88
90 88
91 88
92 88
93 88
94 88
95 88
96 88
97 88
98 88
99 88
100 88
101 88
102 88
103 88
104 88
105 88
106 88
107 88
108 88
109 88
110 88
111 88
112 88
113 88
114 88
115 88
116 88
117 88
118 88
119 88
120 88
121 88
122 88
123 88
124 88
125 88
126 88
127 88
128 88
129 88
130 88
131 88
132 88
133 88
134 88
135 88
136 88
137 88
138 88
139 88
140 88
141 88
142 88
143 88
144 88
145 88
146 88
147 88
148 88
149 88
89 89
90 89
91 89
92 89
93 89
94 89
95 89
96 89
97 89
98 89
99 89
100 89
101 89
102 89
103 89
104 89
105 89
106 89
107 89
108 89
109 89
110 89
111 89
112 89
113 89
114 89
115 89
116 89
117 89
118 89
119 89
120 89
121 89
122 89
123 89
124 89
125 89
126 89
127 89
128 89
129 89
130 89
131 89
132 89
133 89
134 89
135 89
136 89
137 89
138 89
139 89
140 89
141 89
142 89
143 89
144 89
145 89
146 89
147 89
148 89
149 89
89 90
90 90
91 90
92 90
93 90
94 90
95 90
96 90
97 90
98 90
99 90
100 90
101 90
102 90
103 90
104 90
105 90
106 90
107 90
108 90
109 90
110 90
111 90
112 90
113 90
114 90
115 90
116 90
117 90
118 90
119 90
120 90
121 90
122 90
123 90
124 90
125 90
126 90
127 90
128 90
129 90
130 90
131 90
132 90
133 90
134 90
135 90
136 90
137 90
138 90
139 90
140 90
141 90
142 90
143 90
144 90
145 90
146 90
147 90
148 90
149 90
89 91
90 91
91 91
92 91
93 91
94 91
95 91
96 91
97 91
98 91
99 91
100 91
101 91
102 91
103 91
104 91
105 91
106 91
107 91
108 91
109 91
110 91
111 91
112 91
113 91
114 91
115 91
116 91
117 91
118 91
119 91
120 91
121 91
122 91
123 91
124 91
125 91
126 91
127 91
128 91
129 91
130 91
131 91
132 91
133 91
134 91
135 91
136 91
137 91
138 91
139 91
140 91
141 91
142 91
143 91
144 91
145 91
146 91
147 91
148 91
149 91
89 92
90 92
91 92
92 92
93 92
94 92
95 92
96 92
97 92
98 92
99 92
100 92
101 92
102 92
103 92
104 92
105 92
106 92
107 92
108 92
109 92
110 92
111 92
112 92
113 92
114 92
115 92
116 92
117 92
118 92
119 92
120 92
121 92
122 92
123 92
124 92
125 92
126 92
127 92
128 92
129 92
130 92
131 92
132 92
133 92
134 92
135 92
136 92
137 92
138 92
139 92
140 92
141 92
142 92
143 92
144 92
145 92
146 92
147 92
148 92
149 92
89 93
90 93
91 93
92 93
93 93
94 93
95 93
96 93
97 93
98 93
99 93
100 93
101 93
102 93
103 93
104 93
105 93
106 93
107 93
108 93
109 93
110 93
111 93
112 93
113 93
114 93
115 93
116 93
117 93
118 93
119 93
120 93
121 93
122 93
123 93
124 93
125 93
126 93
127 93
128 93
129 93
130 93
131 93
132 93
133 93
134 93
135 93
136 93
137 93
138 93
139 93
140 93
141 93
142 93
143 93
144 93
145 93
146 93
147 93
148 93
149 93
89 94
90 94
91 94
92 94
93 94
94 94
95 94
96 94
97 94
98 94
99 94
100 94
101 94
102 94
103 94
104 94
105 94
106 94
107 94
108 94
109 94
110 94
111 94
112 94
113 94
114 94
115 94
116 94
117 94
118 94
119 94
120 94
121 94
122 94
123 94
124 94
125 94
126 94
127 94
128 94
129 94
130 94
131 94
132 94
133 94
134 94
135 94
136 94
137 94
138 94
139 94
140 94
141 94
142 94
143 94
144 94
145 94
146 94
147 94
148 94
149 94
89 95
90 95
91 95
92 95
93 95
94 95
95 95
96 95
97 95
98 95
99 95
100 95
101 95
102 95
103 95
104 95
105 95
106 95
107 95
108 95
109 95
110 95
111 95
112 95
113 95
114 95
115 95
116 95
117 95
118 95
119 95
120 95
121 95
122 95
123 95
124 95
125 95
126 95
127 95
128 95
129 95
130 95
131 95
132 95
133 95
134 95
135 95
136 95
137 95
138 95
139 95
140 95
141 95
142 95
143 95
144 95
145 95
146 95
147 95
148 95
149 95
89 96
90 96
91 96
92 96
93 96
94 96
95 96
96 96
97 96
98 96
99 96
100 96
101 96
102 96
103 96
104 96
105 96
106 96
107 96
108 96
109 96
110 96
111 96
112 96
113 96
114 96
115 96
116 96
117 96
118 96
119 96
120 96
121 96
122 96
123 96
124 96
125 96
126 96
127 96
128 96
129 96
130 96
131 96
132 96
133 96
134 96
135 96
136 96
137 96
138 96
139 96
140 96
141 96
142 96
143 96
144 96
145 96
146 96
147 96
148 96
149 96
89 97
90 97
91 97
92 97
93 97
94 97
95 97
96 97
97 97
98 97
99 97
100 97
101 97
102 97
103 97
104 97
105 97
106 97
107 97
108 97
109 97
110 97
111 97
112 97
113 97
114 97
115 97
116 97
117 97
118 97
119 97
120 97
121 97
122 97
123 97
124 97
125 97
126 97
127 97
128 97
129 97
130 97
131 97
132 97
133 97
134 97
135 97
136 97
137 97
138 97
139 97
140 97
141 97
142 97
143 97
144 97
145 97
146 97
147 97
148 97
149 97
194 142
195 142
196 142
197 142
198 142
199 142
200 142
201 142
202 142
203 142
204 142
205 142
206 142
207 142
208 142
209 142
210 142
211 142
212 142
213 142
214 142
215 142
216 142
217 142
218 142
219 142
220 142
221 142
222 142
223 142
224 142
225 142
226 142
227 142
228 142
229 142
230 142
231 142
232 142
233 142
234 142
235 142
236 142
237 142
238 142
239 142
240 142
241 142
242 142
243 142
244 142
245 142
246 142
247 142
248 142
249 142
250 142
251 142
252 142
253 142
254 142
255 142
256 142
257 142
258 142
259 142
260 142
261 142
262 142
263 142
264 142
265 142
266 142
267 142
268 142
269 142
270 142
271 142
272 142
273 142
274 142
275 142
276 142
277 142
278 142
279 142
280 142
281 142
282 142
283 142
284 142
285 142
286 142
287 142
288 142
289 142
290 142
291 142
292 142
293 142
294 142
295 142
296 142
297 142
298 142
299 142
300 142
301 142
194 143
195 143
196 143
197 143
198 143
199 143
200 143
201 143
202 143
203 143
204 143
205 143
206 143
207 143
208 143
209 143
210 143
211 143
212 143
213 143
214 143
215 143
216 143
217 143
218 143
219 143
220 143
221 143
222 143
223 143
224 143
225 143
226 143
227 143
228 143
229 143
230 143
231 143
232 143
233 143
234 143
235 143
236 143
237 143
238 143
239 143
240 143
241 143
242 143
243 143
244 143
245 143
246 143
247 143
248 143
249 143
250 143
251 143
252 143
253 143
254 143
255 143
256 143
257 143
258 143
259 143
260 143
261 143
262 143
263 143
264 143
265 143
266 143
267 143
268 143
269 143
270 143
271 143
272 143
273 143
274 143
275 143
276 143
277 143
278 143
279 143
280 143
281 143
282 143
283 143
284 143
285 143
286 143
287 143
288 143
289 143
290 143
291 143
292 143
293 143
294 143
295 143
296 143
297 143
298 143
299 143
300 143
301 143
194 144
195 144
196 144
197 144
198 144
199 144
200 144
201 144
202 144
203 144
204 144
205 144
206 144
207 144
208 144
209 144
210 144
211 144
212 144
213 144
214 144
215 144
216 144
217 144
218 144
219 144
220 144
221 144
222 144
223 144
224 144
225 144
226 144
227 144
228 144
229 144
230 144
231 144
232 144
233 144
234 144
235 144
236 144
237 144
238 144
239 144
240 144
241 144
242 144
243 144
244 144
245 144
246 144
247 144
248 144
249 144
250 144
251 144
252 144
253 144
254 144
255 144
256 144
257 144
258 144
259 144
260 144
261 144
262 144
263 144
264 144
265 144
266 144
267 144
268 144
269 144
270 144
271 144
272 144
273 144
274 144
275 144
276 144
277 144
278 144
279 144
280 144
281 144
282 144
283 144
284 144
285 144
286 144
287 144
288 144
289 144
290 144
291 144
292 144
293 144
294 144
295 144
296 144
297 144
298 144
299 144
300 144
301 144
194 145
195 145
196 145
197 145
198 145
199 145
200 145
201 145
202 145
203 145
204 145
205 145
206 145
207 145
208 145
209 145
210 145
211 145
212 145
213 145
214 145
215 145
216 145
217 145
218 145
219 145
220 145
221 145
222 145
223 145
224 145
225 145
226 145
227 145
228 145
229 145
230 145
231 145
232 145
233 145
234 145
235 145
236 145
237 145
238 145
239 145
240 145
241 145
242 145
243 145
244 145
245 145
246 145
247 145
248 145
249 145
250 145
251 145
252 145
253 145
254 145
255 145
256 145
257 145
258 145
259 145
260 145
261 145
262 145
263 145
264 145
265 145
266 145
267 145
268 145
269 145
270 145
271 145
272 145
273 145
274 145
275 145
276 145
277 145
278 145
279 145
280 145
281 145
282 145
283 145
284 145
285 145
286 145
287 145
288 145
289 145
290 145
291 145
292 145
293 145
294 145
295 145
296 145
297 145
298 145
299 145
300 145
301 145
194 146
195 146
196 146
197 146
198 146
199 146
200 146
201 146
202 146
203 146
204 146
205 146
206 146
207 146
208 146
209 146
210 146
211 146
212 146
213 146
214 146
215 146
216 146
217 146
218 146
219 146
220 146
221 146
222 146
223 146
224 146
225 146
226 146
227 146
228 146
229 146
230 146
231 146
232 146
233 146
234 146
235 146
236 146
237 146
238 146
239 146
240 146
241 146
242 146
243 146
244 146
245 146
246 146
247 146
248 146
249 146
250 146
251 146
252 146
253 146
254 146
255 146
256 146
257 146
258 146
259 146
260 146
261 146
262 146
263 146
264 146
265 146
266 146
267 146
268 146
269 146
270 146
271 146
272 146
273 146
274 146
275 146
276 146
277 146
278 146
279 146
280 146
281 146
282 146
283 146
284 146
285 146
286 146
287 146
288 146
289 146
290 146
291 146
292 146
293 146
294 146
295 146
296 146
297 146
298 146
299 146
300 146
301 146
194 147
195 147
196 147
197 147
198 147
199 147
200 147
201 147
202 147
203 147
204 147
205 147
206 147
207 147
208 147
209 147
210 147
211 147
212 147
213 147
214 147
215 147
216 147
217 147
218 147
219 147
220 147
221 147
222 147
223 147
224 147
225 147
226 147
227 147
228 147
229 147
230 147
231 147
232 147
233 147
234 147
235 147
236 147
237 147
238 147
239 147
240 147
241 147
242 147
243 147
244 147
245 147
246 147
247 147
248 147
249 147
250 147
251 147
252 147
253 147
254 147
255 147
256 147
257 147
258 147
259 147
260 147
261 147
262 147
263 147
264 147
265 147
266 147
267 147
268 147
269 147
270 147
271 147
272 147
273 147
274 147
275 147
276 147
277 147
278 147
279 147
280 147
281 147
282 147
283 147
284 147
285 147
286 147
287 147
288 147
289 147
290 147
291 147
292 147
293 147
294 147
295 147
296 147
297 147
298 147
299 147
300 147
301 147
194 148
195 148
196 148
197 148
198 148
199 148
200 148
201 148
202 148
203 148
204 148
205 148
206 148
207 148
208 148
209 148
210 148
211 148
212 148
213 148
214 148
215 148
216 148
217 148
218 148
219 148
220 148
221 148
222 148
223 148
224 148
225 148
226 148
227 148
228 148
229 148
230 148
231 148
232 148
233 148
234 148
235 148
236 148
237 148
238 148
239 148
240 148
241 148
242 148
243 148
244 148
245 148
246 148
247 148
248 148
249 148
250 148
251 148
252 148
253 148
254 148
255 148
256 148
257 148
258 148
259 148
260 148
261 148
262 148
263 148
264 148
265 148
266 148
267 148
268 148
269 148
270 148
271 148
272 148
273 148
274 148
275 148
276 148
277 148
278 148
279 148
280 148
281 148
282 148
283 148
284 148
285 148
286 148
287 148
288 148
289 148
290 148
291 148
292 148
293 148
294 148
295 148
296 148
297 148
298 148
299 148
300 148
301 148
194 149
195 149
196 149
197 149
198 149
199 149
200 149
201 149
202 149
203 149
204 149
205 149
206 149
207 149
208 149
209 149
210 149
211 149
212 149
213 149
214 149
215 149
216 149
217 149
218 149
219 149
220 149
221 149
222 149
223 149
224 149
225 149
226 149
227 149
228 149
229 149
230 149
231 149
232 149
233 149
234 149
235 149
236 149
237 149
238 149
239 149
240 149
241 149
242 149
243 149
244 149
245 149
246 149
247 149
248 149
249 149
250 149
251 149
252 149
253 149
254 149
255 149
256 149
257 149
258 149
259 149
260 149
261 149
262 149
263 149
264 149
265 149
266 149
267 149
268 149
269 149
270 149
271 149
272 149
273 149
274 149
275 149
276 149
277 149
278 149
279 149
280 149
281 149
282 149
283 149
284 149
285 149
286 149
287 149
288 149
289 149
290 149
291 149
292 149
293 149
294 149
295 149
296 149
297 149
298 149
299 149
300 149
301 149
194 150
195 150
196 150
197 150
198 150
199 150
200 150
201 150
202 150
203 150
204 150
205 150
206 150
207 150
208 150
209 150
210 150
211 150
212 150
213 150
214 150
215 150
216 150
217 150
218 150
219 150
220 150
221 150
222 150
223 150
224 150
225 150
226 150
227 150
228 150
229 150
230 150
231 150
232 150
233 150
234 150
235 150
236 150
237 150
238 150
239 150
240 150
241 150
242 150
243 150
244 150
245 150
246 150
247 150
248 150
249 150
250 150
251 150
252 150
253 150
254 150
255 150
256 150
257 150
258 150
259 150
260 150
261 150
262 150
263 150
264 150
265 150
266 150
267 150
268 150
269 150
270 150
271 150
272 150
273 150
274 150
275 150
276 150
277 150
278 150
279 150
280 150
281 150
282 150
283 150
284 150
285 150
286 150
287 150
288 150
289 150
290 150
291 150
292 150
293 150
294 150
295 150
296 150
297 150
298 150
299 150
300 150
301 150
194 151
195 151
196 151
197 151
198 151
199 151
200 151
201 151
202 151
203 151
204 151
205 151
206 151
207 151
208 151
209 151
210 151
211 151
212 151
213 151
214 151
215 151
216 151
217 151
218 151
219 151
220 151
221 151
222 151
223 151
224 151
225 151
226 151
227 151
228 151
229 151
230 151
231 151
232 151
233 151
234 151
235 151
236 151
237 151
238 151
239 151
240 151
241 151
242 151
243 151
244 151
245 151
246 151
247 151
248 151
249 151
250 151
251 151
252 151
253 151
254 151
255 151
256 151
257 151
258 151
259 151
260 151
261 151
262 151
263 151
264 151
265 151
266 151
267 151
268 151
269 151
270 151
271 151
272 151
273 151
274 151
275 151
276 151
277 151
278 151
279 151
280 151
281 151
282 151
283 151
284 151
285 151
286 151
287 151
288 151
289 151
290 151
291 151
292 151
293 151
294 151
295 151
296 151
297 151
298 151
299 151
300 151
301 151
194 152
195 152
196 152
197 152
198 152
199 152
200 152
201 152
202 152
203 152
204 152
205 152
206 152
207 152
208 152
209 152
210 152
211 152
212 152
213 152
214 152
215 152
216 152
217 152
218 152
219 152
220 152
221 152
222 152
223 152
224 152
225 152
226 152
227 152
228 152
229 152
230 152
231 152
232 152
233 152
234 152
235 152
236 152
237 152
238 152
239 152
240 152
241 152
242 152
243 152
244 152
245 152
246 152
247 152
248 152
249 152
250 152
251 152
252 152
253 152
254 152
255 152
256 152
257 152
258 152
259 152
260 152
261 152
262 152
263 152
264 152
265 152
266 152
267 152
268 152
269 152
270 152
271 152
272 152
273 152
274 152
275 152
276 152
277 152
278 152
279 152
280 152
281 152
282 152
283 152
284 152
285 152
286 152
287 152
288 152
289 152
290 152
291 152
292 152
293 152
294 152
295 152
296 152
297 152
298 152
299 152
300 152
301 152
194 153
195 153
196 153
197 153
198 153
199 153
200 153
201 153
202 153
203 153
204 153
205 153
206 153
207 153
208 153
209 153
210 153
211 153
212 153
213 153
214 153
215 153
216 153
217 153
218 153
219 153
220 153
221 153
222 153
223 153
224 153
225 153
226 153
227 153
228 153
229 153
230 153
231 153
232 153
233 153
234 153
235 153
236 153
237 153
238 153
239 153
240 153
241 153
242 153
243 153
244 153
245 153
246 153
247 153
248 153
249 153
250 153
251 153
252 153
253 153
254 153
255 153
256 153
257 153
258 153
259 153
260 153
261 153
262 153
263 153
264 153
265 153
266 153
267 153
268 153
269 153
270 153
271 153
272 153
273 153
274 153
275 153
276 153
277 153
278 153
279 153
280 153
281 153
282 153
283 153
284 153
285 153
286 153
287 153
288 153
289 153
290 153
291 153
292 153
293 153
294 153
295 153
296 153
297 153
298 153
299 153
300 153
301 153
194 154
195 154
196 154
197 154
198 154
199 154
200 154
201 154
202 154
203 154
204 154
205 154
206 154
207 154
208 154
209 154
210 154
211 154
212 154
213 154
214 154
215 154
216 154
217 154
218 154
219 154
220 154
221 154
222 154
223 154
224 154
225 154
226 154
227 154
228 154
229 154
230 154
231 154
232 154
233 154
234 154
235 154
236 154
237 154
238 154
239 154
240 154
241 154
242 154
243 154
244 154
245 154
246 154
247 154
248 154
249 154
250 154
251 154
252 154
253 154
254 154
255 154
256 154
257 154
258 154
259 154
260 154
261 154
262 154
263 154
264 154
265 154
266 154
267 154
268 154
269 154
270 154
271 154
272 154
273 154
274 154
275 154
276 154
277 154
278 154
279 154
280 154
281 154
282 154
283 154
284 154
285 154
286 154
287 154
288 154
289 154
290 154
291 154
292 154
293 154
294 154
295 154
296 154
297 154
298 154
299 154
300 154
301 154
194 155
195 155
196 155
197 155
198 155
199 155
200 155
201 155
202 155
203 155
204 155
205 155
206 155
207 155
208 155
209 155
210 155
211 155
212 155
213 155
214 155
215 155
216 155
217 155
218 155
219 155
220 155
221 155
222 155
223 155
224 155
225 155
226 155
227 155
228 155
229 155
230 155
231 155
232 155
233 155
234 155
235 155
236 155
237 155
238 155
239 155
240 155
241 155
242 155
243 155
244 155
245 155
246 155
247 155
248 155
249 155
250 155
251 155
252 155
253 155
254 155
255 155
256 155
257 155
258 155
259 155
260 155
261 155
262 155
263 155
264 155
265 155
266 155
267 155
268 155
269 155
270 155
271 155
272 155
273 155
274 155
275 155
276 155
277 155
278 155
279 155
280 155
281 155
282 155
283 155
284 155
285 155
286 155
287 155
288 155
289 155
290 155
291 155
292 155
293 155
294 155
295 155
296 155
297 155
298 155
299 155
300 155
301 155
194 156
195 156
196 156
197 156
198 156
199 156
200 156
201 156
202 156
203 156
204 156
205 156
206 156
207 156
208 156
209 156
210 156
211 156
212 156
213 156
214 156
215 156
216 156
217 156
218 156
219 156
220 156
221 156
222 156
223 156
224 156
225 156
226 156
227 156
228 156
229 156
230 156
231 156
232 156
233 156
234 156
235 156
236 156
237 156
238 156
239 156
240 156
241 156
242 156
243 156
244 156
245 156
246 156
247 156
248 156
249 156
250 156
251 156
252 156
253 156
254 156
255 156
256 156
257 156
258 156
259 156
260 156
261 156
262 156
263 156
264 156
265 156
266 156
267 156
268 156
269 156
270 156
271 156
272 156
273 156
274 156
275 156
276 156
277 156
278 156
279 156
280 156
281 156
282 156
283 156
284 156
285 156
286 156
287 156
288 156
289 156
290 156
291 156
292 156
293 156
294 156
295 156
296 156
297 156
298 156
299 156
300 156
301 156
194 157
195 157
196 157
197 157
198 157
199 157
200 157
201 157
202 157
203 157
204 157
205 157
206 157
207 157
208 157
209 157
210 157
211 157
212 157
213 157
214 157
215 157
216 157
217 157
218 157
219 157
220 157
221 157
222 157
223 157
224 157
225 157
226 157
227 157
228 157
229 157
230 157
231 157
232 157
233 157
234 157
235 157
236 157
237 157
238 157
239 157
240 157
241 157
242 157
243 157
244 157
245 157
246 157
247 157
248 157
249 157
250 157
251 157
252 157
253 157
254 157
255 157
256 157
257 157
258 157
259 157
260 157
261 157
262 157
263 157
264 157
265 157
266 157
267 157
268 157
269 157
270 157
271 157
272 157
273 157
274 157
275 157
276 157
277 157
278 157
279 157
280 157
281 157
282 157
283 157
284 157
285 157
286 157
287 157
288 157
289 157
290 157
291 157
292 157
293 157
294 157
295 157
296 157
297 157
298 157
299 157
300 157
301 157
194 158
195 158
196 158
197 158
198 158
199 158
200 158
201 158
202 158
203 158
204 158
205 158
206 158
207 158
208 158
209 158
210 158
211 158
212 158
213 158
214 158
215 158
216 158
217 158
218 158
219 158
220 158
221 158
222 158
223 158
224 158
225 158
226 158
227 158
228 158
229 158
230 158
231 158
232 158
233 158
234 158
235 158
236 158
237 158
238 158
239 158
240 158
241 158
242 158
243 158
244 158
245 158
246 158
247 158
248 158
249 158
250 158
251 158
252 158
253 158
254 158
255 158
256 158
257 158
258 158
259 158
260 158
261 158
262 158
263 158
264 158
265 158
266 158
267 158
268 158
269 158
270 158
271 158
272 158
273 158
274 158
275 158
276 158
277 158
278 158
279 158
280 158
281 158
282 158
283 158
284 158
285 158
286 158
287 158
288 158
289 158
290 158
291 158
292 158
293 158
294 158
295 158
296 158
297 158
298 158
299 158
300 158
301 158
194 159
195 159
196 159
197 159
198 159
199 159
200 159
201 159
202 159
203 159
204 159
205 159
206 159
207 159
208 159
209 159
210 159
211 159
212 159
213 159
214 159
215 159
216 159
217 159
218 159
219 159
220 159
221 159
222 159
223 159
224 159
225 159
226 159
227 159
228 159
229 159
230 159
231 159
232 159
233 159
234 159
235 159
236 159
237 159
238 159
239 159
240 159
241 159
242 159
243 159
244 159
245 159
246 159
247 159
248 159
249 159
250 159
251 159
252 159
253 159
254 159
255 159
256 159
257 159
258 159
259 159
260 159
261 159
262 159
263 159
264 159
265 159
266 159
267 159
268 159
269 159
270 159
271 159
272 159
273 159
274 159
275 159
276 159
277 159
278 159
279 159
280 159
281 159
282 159
283 159
284 159
285 159
286 159
287 159
288 159
289 159
290 159
291 159
292 159
293 159
294 159
295 159
296 159
297 159
298 159
299 159
300 159
301 159
194 160
195 160
196 160
197 160
198 160
199 160
200 160
201 160
202 160
203 160
204 160
205 160
206 160
207 160
208 160
209 160
210 160
211 160
212 160
213 160
214 160
215 160
216 160
217 160
218 160
219 160
220 160
221 160
222 160
223 160
224 160
225 160
226 160
227 160
228 160
229 160
230 160
231 160
232 160
233 160
234 160
235 160
236 160
237 160
238 160
239 160
240 160
241 160
242 160
243 160
244 160
245 160
246 160
247 160
248 160
249 160
250 160
251 160
252 160
253 160
254 160
255 160
256 160
257 160
258 160
259 160
260 160
261 160
262 160
263 160
264 160
265 160
266 160
267 160
268 160
269 160
270 160
271 160
272 160
273 160
274 160
275 160
276 160
277 160
278 160
279 160
280 160
281 160
282 160
283 160
284 160
285 160
286 160
287 160
288 160
289 160
290 160
291 160
292 160
293 160
294 160
295 160
296 160
297 160
298 160
299 160
300 160
301 160
194 161
195 161
196 161
197 161
198 161
199 161
200 161
201 161
202 161
203 161
204 161
205 161
206 161
207 161
208 161
209 161
210 161
211 161
212 161
213 161
214 161
215 161
216 161
217 161
218 161
219 161
220 161
221 161
222 161
223 161
224 161
225 161
226 161
227 161
228 161
229 161
230 161
231 161
232 161
233 161
234 161
235 161
236 161
237 161
238 161
239 161
240 161
241 161
242 161
243 161
244 161
245 161
246 161
247 161
248 161
249 161
250 161
251 161
252 161
253 161
254 161
255 161
256 161
257 161
258 161
259 161
260 161
261 161
262 161
263 161
264 161
265 161
266 161
267 161
268 161
269 161
270 161
271 161
272 161
273 161
274 161
275 161
276 161
277 161
278 161
279 161
280 161
281 161
282 161
283 161
284 161
285 161
286 161
287 161
288 161
289 161
290 161
291 161
292 161
293 161
294 161
295 161
296 161
297 161
298 161
299 161
300 161
301 161
194 162
195 162
196 162
197 162
198 162
199 162
200 162
201 162
202 162
203 162
204 162
205 162
206 162
207 162
208 162
209 162
210 162
211 162
212 162
213 162
214 162
215 162
216 162
217 162
218 162
219 162
220 162
221 162
222 162
223 162
224 162
225 162
226 162
227 162
228 162
229 162
230 162
231 162
232 162
233 162
234 162
235 162
236 162
237 162
238 162
239 162
240 162
241 162
242 162
243 162
244 162
245 162
246 162
247 162
248 162
249 162
250 162
251 162
252 162
253 162
254 162
255 162
256 162
257 162
258 162
259 162
260 162
261 162
262 162
263 162
264 162
265 162
266 162
267 162
268 162
269 162
270 162
271 162
272 162
273 162
274 162
275 162
276 162
277 162
278 162
279 162
280 162
281 162
282 162
283 162
284 162
285 162
286 162
287 162
288 162
289 162
290 162
291 162
292 162
293 162
294 162
295 162
296 162
297 162
298 162
299 162
300 162
301 162
194 163
195 163
196 163
197 163
198 163
199 163
200 163
201 163
202 163
203 163
204 163
205 163
206 163
207 163
208 163
209 163
210 163
211 163
212 163
213 163
214 163
215 163
216 163
217 163
218 163
219 163
220 163
221 163
222 163
223 163
224 163
225 163
226 163
227 163
228 163
229 163
230 163
231 163
232 163
233 163
234 163
235 163
236 163
237 163
238 163
239 163
240 163
241 163
242 163
243 163
244 163
245 163
246 163
247 163
248 163
249 163
250 163
251 163
252 163
253 163
254 163
255 163
256 163
257 163
258 163
259 163
260 163
261 163
262 163
263 163
264 163
265 163
266 163
267 163
268 163
269 163
270 163
271 163
272 163
273 163
274 163
275 163
276 163
277 163
278 163
279 163
280 163
281 163
282 163
283 163
284 163
285 163
286 163
287 163
288 163
289 163
290 163
291 163
292 163
293 163
294 163
295 163
296 163
297 163
298 163
299 163
300 163
301 163
194 164
195 164
196 164
197 164
198 164
199 164
200 164
201 164
202 164
203 164
204 164
205 164
206 164
207 164
208 164
209 164
210 164
211 164
212 164
213 164
214 164
215 164
216 164
217 164
218 164
219 164
220 164
221 164
222 164
223 164
224 164
225 164
226 164
227 164
228 164
229 164
230 164
231 164
232 164
233 164
234 164
235 164
236 164
237 164
238 164
239 164
240 164
241 164
242 164
243 164
244 164
245 164
246 164
247 164
248 164
249 164
250 164
251 164
252 164
253 164
254 164
255 164
256 164
257 164
258 164
259 164
260 164
261 164
262 164
263 164
264 164
265 164
266 164
267 164
268 164
269 164
270 164
271 164
272 164
273 164
274 164
275 164
276 164
277 164
278 164
279 164
280 164
281 164
282 164
283 164
284 164
285 164
286 164
287 164
288 164
289 164
290 164
291 164
292 164
293 164
294 164
295 164
296 164
297 164
298 164
299 164
300 164
301 164
194 165
195 165
196 165
197 165
198 165
199 165
200 165
201 165
202 165
203 165
204 165
205 165
206 165
207 165
208 165
209 165
210 165
211 165
212 165
213 165
214 165
215 165
216 165
217 165
218 165
219 165
220 165
221 165
222 165
223 165
224 165
225 165
226 165
227 165
228 165
229 165
230 165
231 165
232 165
233 165
234 165
235 165
236 165
237 165
238 165
239 165
240 165
241 165
242 165
243 165
244 165
245 165
246 165
247 165
248 165
249 165
250 165
251 165
252 165
253 165
254 165
255 165
256 165
257 165
258 165
259 165
260 165
261 165
262 165
263 165
264 165
265 165
266 165
267 165
268 165
269 165
270 165
271 165
272 165
273 165
274 165
275 165
276 165
277 165
278 165
279 165
280 165
281 165
282 165
283 165
284 165
285 165
286 165
287 165
288 165
289 165
290 165
291 165
292 165
293 165
294 165
295 165
296 165
297 165
298 165
299 165
300 165
301 165
194 166
195 166
196 166
197 166
198 166
199 166
200 166
201 166
202 166
203 166
204 166
205 166
206 166
207 166
208 166
209 166
210 166
211 166
212 166
213 166
214 166
215 166
216 166
217 166
218 166
219 166
220 166
221 166
222 166
223 166
224 166
225 166
226 166
227 166
228 166
229 166
230 166
231 166
232 166
233 166
234 166
235 166
236 166
237 166
238 166
239 166
240 166
241 166
242 166
243 166
244 166
245 166
246 166
247 166
248 166
249 166
250 166
251 166
252 166
253 166
254 166
255 166
256 166
257 166
258 166
259 166
260 166
261 166
262 166
263 166
264 166
265 166
266 166
267 166
268 166
269 166
270 166
271 166
272 166
273 166
274 166
275 166
276 166
277 166
278 166
279 166
280 166
281 166
282 166
283 166
284 166
285 166
286 166
287 166
288 166
289 166
290 166
291 166
292 166
293 166
294 166
295 166
296 166
297 166
298 166
299 166
300 166
301 166
194 167
195 167
196 167
197 167
198 167
199 167
200 167
201 167
202 167
203 167
204 167
205 167
206 167
207 167
208 167
209 167
210 167
211 167
212 167
213 167
214 167
215 167
216 167
217 167
218 167
219 167
220 167
221 167
222 167
223 167
224 167
225 167
226 167
227 167
228 167
229 167
230 167
231 167
232 167
233 167
234 167
235 167
236 167
237 167
238 167
239 167
240 167
241 167
242 167
243 167
244 167
245 167
246 167
247 167
248 167
249 167
250 167
251 167
252 167
253 167
254 167
255 167
256 167
257 167
258 167
259 167
260 167
261 167
262 167
263 167
264 167
265 167
266 167
267 167
268 167
269 167
270 167
271 167
272 167
273 167
274 167
275 167
276 167
277 167
278 167
279 167
280 167
281 167
282 167
283 167
284 167
285 167
286 167
287 167
288 167
289 167
290 167
291 167
292 167
293 167
294 167
295 167
296 167
297 167
298 167
299 167
300 167
301 167
194 168
195 168
196 168
197 168
198 168
199 168
200 168
201 168
202 168
203 168
204 168
205 168
206 168
207 168
208 168
209 168
210 168
211 168
212 168
213 168
214 168
215 168
216 168
217 168
218 168
219 168
220 168
221 168
222 168
223 168
224 168
225 168
226 168
227 168
228 168
229 168
230 168
231 168
232 168
233 168
234 168
235 168
236 168
237 168
238 168
239 168
240 168
241 168
242 168
243 168
244 168
245 168
246 168
247 168
248 168
249 168
250 168
251 168
252 168
253 168
254 168
255 168
256 168
257 168
258 168
259 168
260 168
261 168
262 168
263 168
264 168
265 168
266 168
267 168
268 168
269 168
270 168
271 168
272 168
273 168
274 168
275 168
276 168
277 168
278 168
279 168
280 168
281 168
282 168
283 168
284 168
285 168
286 168
287 168
288 168
289 168
290 168
291 168
292 168
293 168
294 168
295 168
296 168
297 168
298 168
299 168
300 168
301 168
194 169
195 169
196 169
197 169
198 169
199 169
200 169
201 169
202 169
203 169
204 169
205 169
206 169
207 169
208 169
209 169
210 169
211 169
212 169
213 169
214 169
215 169
216 169
217 169
218 169
219 169
220 169
221 169
222 169
223 169
224 169
225 169
226 169
227 169
228 169
229 169
230 169
231 169
232 169
233 169
234 169
235 169
236 169
237 169
238 169
239 169
240 169
241 169
242 169
243 169
244 169
245 169
246 169
247 169
248 169
249 169
250 169
251 169
252 169
253 169
254 169
255 169
256 169
257 169
258 169
259 169
260 169
261 169
262 169
263 169
264 169
265 169
266 169
267 169
268 169
269 169
270 169
271 169
272 169
273 169
274 169
275 169
276 169
277 169
278 169
279 169
280 169
281 169
282 169
283 169
284 169
285 169
286 169
287 169
288 169
289 169
290 169
291 169
292 169
293 169
294 169
295 169
296 169
297 169
298 169
299 169
300 169
301 169
194 170
195 170
196 170
197 170
198 170
199 170
200 170
201 170
202 170
203 170
204 170
205 170
206 170
207 170
208 170
209 170
210 170
211 170
212 170
213 170
214 170
215 170
216 170
217 170
218 170
219 170
220 170
221 170
222 170
223 170
224 170
225 170
226 170
227 170
228 170
229 170
230 170
231 170
232 170
233 170
234 170
235 170
236 170
237 170
238 170
239 170
240 170
241 170
242 170
243 170
244 170
245 170
246 170
247 170
248 170
249 170
250 170
251 170
252 170
253 170
254 170
255 170
256 170
257 170
258 170
259 170
260 170
261 170
262 170
263 170
264 170
265 170
266 170
267 170
268 170
269 170
270 170
271 170
272 170
273 170
274 170
275 170
276 170
277 170
278 170
279 170
280 170
281 170
282 170
283 170
284 170
285 170
286 170
287 170
288 170
289 170
290 170
291 170
292 170
293 170
294 170
295 170
296 170
297 170
298 170
299 170
300 170
301 170
194 171
195 171
196 171
197 171
198 171
199 171
200 171
201 171
202 171
203 171
204 171
205 171
206 171
207 171
208 171
209 171
210 171
211 171
212 171
213 171
214 171
215 171
216 171
217 171
218 171
219 171
220 171
221 171
222 171
223 171
224 171
225 171
226 171
227 171
228 171
229 171
230 171
231 171
232 171
233 171
234 171
235 171
236 171
237 171
238 171
239 171
240 171
241 171
242 171
243 171
244 171
245 171
246 171
247 171
248 171
249 171
250 171
251 171
252 171
253 171
254 171
255 171
256 171
257 171
258 171
259 171
260 171
261 171
262 171
263 171
264 171
265 171
266 171
267 171
268 171
269 171
270 171
271 171
272 171
273 171
274 171
275 171
276 171
277 171
278 171
279 171
280 171
281 171
282 171
283 171
284 171
285 171
286 171
287 171
288 171
289 171
290 171
291 171
292 171
293 171
294 171
295 171
296 171
297 171
298 171
299 171
300 171
301 171
194 172
195 172
196 172
197 172
198 172
199 172
200 172
201 172
202 172
203 172
204 172
205 172
206 172
207 172
208 172
209 172
210 172
211 172
212 172
213 172
214 172
215 172
216 172
217 172
218 172
219 172
220 172
221 172
222 172
223 172
224 172
225 172
226 172
227 172
228 172
229 172
230 172
231 172
232 172
233 172
234 172
235 172
236 172
237 172
238 172
239 172
240 172
241 172
242 172
243 172
244 172
245 172
246 172
247 172
248 172
249 172
250 172
251 172
252 172
253 172
254 172
255 172
256 172
257 172
258 172
259 172
260 172
261 172
262 172
263 172
264 172
265 172
266 172
267 172
268 172
269 172
270 172
271 172
272 172
273 172
274 172
275 172
276 172
277 172
278 172
279 172
280 172
281 172
282 172
283 172
284 172
285 172
286 172
287 172
288 172
289 172
290 172
291 172
292 172
293 172
294 172
295 172
296 172
297 172
298 172
299 172
300 172
301 172
194 173
195 173
196 173
197 173
198 173
199 173
200 173
201 173
202 173
203 173
204 173
205 173
206 173
207 173
208 173
209 173
210 173
211 173
212 173
213 173
214 173
215 173
216 173
217 173
218 173
219 173
220 173
221 173
222 173
223 173
224 173
225 173
226 173
227 173
228 173
229 173
230 173
231 173
232 173
233 173
234 173
235 173
236 173
237 173
238 173
239 173
240 173
241 173
242 173
243 173
244 173
245 173
246 173
247 173
248 173
249 173
250 173
251 173
252 173
253 173
254 173
255 173
256 173
257 173
258 173
259 173
260 173
261 173
262 173
263 173
264 173
265 173
266 173
267 173
268 173
269 173
270 173
271 173
272 173
273 173
274 173
275 173
276 173
277 173
278 173
279 173
280 173
281 173
282 173
283 173
284 173
285 173
286 173
287 173
288 173
289 173
290 173
291 173
292 173
293 173
294 173
295 173
296 173
297 173
298 173
299 173
300 173
301 173
194 174
195 174
196 174
197 174
198 174
199 174
200 174
201 174
202 174
203 174
204 174
205 174
206 174
207 174
208 174
209 174
210 174
211 174
212 174
213 174
214 174
215 174
216 174
217 174
218 174
219 174
220 174
221 174
222 174
223 174
224 174
225 174
226 174
227 174
228 174
229 174
230 174
231 174
232 174
233 174
234 174
235 174
236 174
237 174
238 174
239 174
240 174
241 174
242 174
243 174
244 174
245 174
246 174
247 174
248 174
249 174
250 174
251 174
252 174
253 174
254 174
255 174
256 174
257 174
258 174
259 174
260 174
261 174
262 174
263 174
264 174
265 174
266 174
267 174
268 174
269 174
270 174
271 174
272 174
273 174
274 174
275 174
276 174
277 174
278 174
279 174
280 174
281 174
282 174
283 174
284 174
285 174
286 174
287 174
288 174
289 174
290 174
291 174
292 174
293 174
294 174
295 174
296 174
297 174
298 174
299 174
300 174
301 174
194 175
195 175
196 175
197 175
198 175
199 175
200 175
201 175
202 175
203 175
204 175
205 175
206 175
207 175
208 175
209 175
210 175
211 175
212 175
213 175
214 175
215 175
216 175
217 175
218 175
219 175
220 175
221 175
222 175
223 175
224 175
225 175
226 175
227 175
228 175
229 175
230 175
231 175
232 175
233 175
234 175
235 175
236 175
237 175
238 175
239 175
240 175
241 175
242 175
243 175
244 175
245 175
246 175
247 175
248 175
249 175
250 175
251 175
252 175
253 175
254 175
255 175
256 175
257 175
258 175
259 175
260 175
261 175
262 175
263 175
264 175
265 175
266 175
267 175
268 175
269 175
270 175
271 175
272 175
273 175
274 175
275 175
276 175
277 175
278 175
279 175
280 175
281 175
282 175
283 175
284 175
285 175
286 175
287 175
288 175
289 175
290 175
291 175
292 175
293 175
294 175
295 175
296 175
297 175
298 175
299 175
300 175
301 175
194 176
195 176
196 176
197 176
198 176
199 176
200 176
201 176
202 176
203 176
204 176
205 176
206 176
207 176
208 176
209 176
210 176
211 176
212 176
213 176
214 176
215 176
216 176
217 176
218 176
219 176
220 176
221 176
222 176
223 176
224 176
225 176
226 176
227 176
228 176
229 176
230 176
231 176
232 176
233 176
234 176
235 176
236 176
237 176
238 176
239 176
240 176
241 176
242 176
243 176
244 176
245 176
246 176
247 176
248 176
249 176
250 176
251 176
252 176
253 176
254 176
255 176
256 176
257 176
258 176
259 176
260 176
261 176
262 176
263 176
264 176
265 176
266 176
267 176
268 176
269 176
270 176
271 176
272 176
273 176
274 176
275 176
276 176
277 176
278 176
279 176
280 176
281 176
282 176
283 176
284 176
285 176
286 176
287 176
288 176
289 176
290 176
291 176
292 176
293 176
294 176
295 176
296 176
297 176
298 176
299 176
300 176
301 176
194 177
195 177
196 177
197 177
198 177
199 177
200 177
201 177
202 177
203 177
204 177
205 177
206 177
207 177
208 177
209 177
210 177
211 177
212 177
213 177
214 177
215 177
216 177
217 177
218 177
219 177
220 177
221 177
222 177
223 177
224 177
225 177
226 177
227 177
228 177
229 177
230 177
231 177
232 177
233 177
234 177
235 177
236 177
237 177
238 177
239 177
240 177
241 177
242 177
243 177
244 177
245 177
246 177
247 177
248 177
249 177
250 177
251 177
252 177
253 177
254 177
255 177
256 177
257 177
258 177
259 177
260 177
261 177
262 177
263 177
264 177
265 177
266 177
267 177
268 177
269 177
270 177
271 177
272 177
273 177
274 177
275 177
276 177
277 177
278 177
279 177
280 177
281 177
282 177
283 177
284 177
285 177
286 177
287 177
288 177
289 177
290 177
291 177
292 177
293 177
294 177
295 177
296 177
297 177
298 177
299 177
300 177
301 177
194 178
195 178
196 178
197 178
198 178
199 178
200 178
201 178
202 178
203 178
204 178
205 178
206 178
207 178
208 178
209 178
210 178
211 178
212 178
213 178
214 178
215 178
216 178
217 178
218 178
219 178
220 178
221 178
222 178
223 178
224 178
225 178
226 178
227 178
228 178
229 178
230 178
231 178
232 178
233 178
234 178
235 178
236 178
237 178
238 178
239 178
240 178
241 178
242 178
243 178
244 178
245 178
246 178
247 178
248 178
249 178
250 178
251 178
252 178
253 178
254 178
255 178
256 178
257 178
258 178
259 178
260 178
261 178
262 178
263 178
264 178
265 178
266 178
267 178
268 178
269 178
270 178
271 178
272 178
273 178
274 178
275 178
276 178
277 178
278 178
279 178
280 178
281 178
282 178
283 178
284 178
285 178
286 178
287 178
288 178
289 178
290 178
291 178
292 178
293 178
294 178
295 178
296 178
297 178
298 178
299 178
300 178
301 178
194 179
195 179
196 179
197 179
198 179
199 179
200 179
201 179
202 179
203 179
204 179
205 179
206 179
207 179
208 179
209 179
210 179
211 179
212 179
213 179
214 179
215 179
216 179
217 179
218 179
219 179
220 179
221 179
222 179
223 179
224 179
225 179
226 179
227 179
228 179
229 179
230 179
231 179
232 179
233 179
234 179
235 179
236 179
237 179
238 179
239 179
240 179
241 179
242 179
243 179
244 179
245 179
246 179
247 179
248 179
249 179
250 179
251 179
252 179
253 179
254 179
255 179
256 179
257 179
258 179
259 179
260 179
261 179
262 179
263 179
264 179
265 179
266 179
267 179
268 179
269 179
270 179
271 179
272 179
273 179
274 179
275 179
276 179
277 179
278 179
279 179
280 179
281 179
282 179
283 179
284 179
285 179
286 179
287 179
288 179
289 179
290 179
291 179
292 179
293 179
294 179
295 179
296 179
297 179
298 179
299 179
300 179
301 179
194 180
195 180
196 180
197 180
198 180
199 180
200 180
201 180
202 180
203 180
204 180
205 180
206 180
207 180
208 180
209 180
210 180
211 180
212 180
213 180
214 180
215 180
216 180
217 180
218 180
219 180
220 180
221 180
222 180
223 180
224 180
225 180
226 180
227 180
228 180
229 180
230 180
231 180
232 180
233 180
234 180
235 180
236 180
237 180
238 180
239 180
240 180
241 180
242 180
243 180
244 180
245 180
246 180
247 180
248 180
249 180
250 180
251 180
252 180
253 180
254 180
255 180
256 180
257 180
258 180
259 180
260 180
261 180
262 180
263 180
264 180
265 180
266 180
267 180
268 180
269 180
270 180
271 180
272 180
273 180
274 180
275 180
276 180
277 180
278 180
279 180
280 180
281 180
282 180
283 180
284 180
285 180
286 180
287 180
288 180
289 180
290 180
291 180
292 180
293 180
294 180
295 180
296 180
297 180
298 180
299 180
300 180
301 180
194 181
195 181
196 181
197 181
198 181
199 181
200 181
201 181
202 181
203 181
204 181
205 181
206 181
207 181
208 181
209 181
210 181
211 181
212 181
213 181
214 181
215 181
216 181
217 181
218 181
219 181
220 181
221 181
222 181
223 181
224 181
225 181
226 181
227 181
228 181
229 181
230 181
231 181
232 181
233 181
234 181
235 181
236 181
237 181
238 181
239 181
240 181
241 181
242 181
243 181
244 181
245 181
246 181
247 181
248 181
249 181
250 181
251 181
252 181
253 181
254 181
255 181
256 181
257 181
258 181
259 181
260 181
261 181
262 181
263 181
264 181
265 181
266 181
267 181
268 181
269 181
270 181
271 181
272 181
273 181
274 181
275 181
276 181
277 181
278 181
279 181
280 181
281 181
282 181
283 181
284 181
285 181
286 181
287 181
288 181
289 181
290 181
291 181
292 181
293 181
294 181
295 181
296 181
297 181
298 181
299 181
300 181
301 181
194 182
195 182
196 182
197 182
198 182
199 182
200 182
201 182
202 182
203 182
204 182
205 182
206 182
207 182
208 182
209 182
210 182
211 182
212 182
213 182
214 182
215 182
216 182
217 182
218 182
219 182
220 182
221 182
222 182
223 182
224 182
225 182
226 182
227 182
228 182
229 182
230 182
231 182
232 182
233 182
234 182
235 182
236 182
237 182
238 182
239 182
240 182
241 182
242 182
243 182
244 182
245 182
246 182
247 182
248 182
249 182
250 182
251 182
252 182
253 182
254 182
255 182
256 182
257 182
258 182
259 182
260 182
261 182
262 182
263 182
264 182
265 182
266 182
267 182
268 182
269 182
270 182
271 182
272 182
273 182
274 182
275 182
276 182
277 182
278 182
279 182
280 182
281 182
282 182
283 182
284 182
285 182
286 182
287 182
288 182
289 182
290 182
291 182
292 182
293 182
294 182
295 182
296 182
297 182
298 182
299 182
300 182
301 182
194 183
195 183
196 183
197 183
198 183
199 183
200 183
201 183
202 183
203 183
204 183
205 183
206 183
207 183
208 183
209 183
210 183
211 183
212 183
213 183
214 183
215 183
216 183
217 183
218 183
219 183
220 183
221 183
222 183
223 183
224 183
225 183
226 183
227 183
228 183
229 183
230 183
231 183
232 183
233 183
234 183
235 183
236 183
237 183
238 183
239 183
240 183
241 183
242 183
243 183
244 183
245 183
246 183
247 183
248 183
249 183
250 183
251 183
252 183
253 183
254 183
255 183
256 183
257 183
258 183
259 183
260 183
261 183
262 183
263 183
264 183
265 183
266 183
267 183
268 183
269 183
270 183
271 183
272 183
273 183
274 183
275 183
276 183
277 183
278 183
279 183
280 183
281 183
282 183
283 183
284 183
285 183
286 183
287 183
288 183
289 183
290 183
291 183
292 183
293 183
294 183
295 183
296 183
297 183
298 183
299 183
300 183
301 183
194 184
195 184
196 184
197 184
198 184
199 184
200 184
201 184
202 184
203 184
204 184
205 184
206 184
207 184
208 184
209 184
210 184
211 184
212 184
213 184
214 184
215 184
216 184
217 184
218 184
219 184
220 184
221 184
222 184
223 184
224 184
225 184
226 184
227 184
228 184
229 184
230 184
231 184
232 184
233 184
234 184
235 184
236 184
237 184
238 184
239 184
240 184
241 184
242 184
243 184
244 184
245 184
246 184
247 184
248 184
249 184
250 184
251 184
252 184
253 184
254 184
255 184
256 184
257 184
258 184
259 184
260 184
261 184
262 184
263 184
264 184
265 184
266 184
267 184
268 184
269 184
270 184
271 184
272 184
273 184
274 184
275 184
276 184
277 184
278 184
279 184
280 184
281 184
282 184
283 184
284 184
285 184
286 184
287 184
288 184
289 184
290 184
291 184
292 184
293 184
294 184
295 184
296 184
297 184
298 184
299 184
300 184
301 184
194 185
195 185
196 185
197 185
198 185
199 185
200 185
201 185
202 185
203 185
204 185
205 185
206 185
207 185
208 185
209 185
210 185
211 185
212 185
213 185
214 185
215 185
216 185
217 185
218 185
219 185
220 185
221 185
222 185
223 185
224 185
225 185
226 185
227 185
228 185
229 185
230 185
231 185
232 185
233 185
234 185
235 185
236 185
237 185
238 185
239 185
240 185
241 185
242 185
243 185
244 185
245 185
246 185
247 185
248 185
249 185
250 185
251 185
252 185
253 185
254 185
255 185
256 185
257 185
258 185
259 185
260 185
261 185
262 185
263 185
264 185
265 185
266 185
267 185
268 185
269 185
270 185
271 185
272 185
273 185
274 185
275 185
276 185
277 185
278 185
279 185
280 185
281 185
282 185
283 185
284 185
285 185
286 185
287 185
288 185
289 185
290 185
291 185
292 185
293 185
294 185
295 185
296 185
297 185
298 185
299 185
300 185
301 185
194 186
195 186
196 186
197 186
198 186
199 186
200 186
201 186
202 186
203 186
204 186
205 186
206 186
207 186
208 186
209 186
210 186
211 186
212 186
213 186
214 186
215 186
216 186
217 186
218 186
219 186
220 186
221 186
222 186
223 186
224 186
225 186
226 186
227 186
228 186
229 186
230 186
231 186
232 186
233 186
234 186
235 186
236 186
237 186
238 186
239 186
240 186
241 186
242 186
243 186
244 186
245 186
246 186
247 186
248 186
249 186
250 186
251 186
252 186
253 186
254 186
255 186
256 186
257 186
258 186
259 186
260 186
261 186
262 186
263 186
264 186
265 186
266 186
267 186
268 186
269 186
270 186
271 186
272 186
273 186
274 186
275 186
276 186
277 186
278 186
279 186
280 186
281 186
282 186
283 186
284 186
285 186
286 186
287 186
288 186
289 186
290 186
291 186
292 186
293 186
294 186
295 186
296 186
297 186
298 186
299 186
300 186
301 186
194 187
195 187
196 187
197 187
198 187
199 187
200 187
201 187
202 187
203 187
204 187
205 187
206 187
207 187
208 187
209 187
210 187
211 187
212 187
213 187
214 187
215 187
216 187
217 187
218 187
219 187
220 187
221 187
222 187
223 187
224 187
225 187
226 187
227 187
228 187
229 187
230 187
231 187
232 187
233 187
234 187
235 187
236 187
237 187
238 187
239 187
240 187
241 187
242 187
243 187
244 187
245 187
246 187
247 187
248 187
249 187
250 187
251 187
252 187
253 187
254 187
255 187
256 187
257 187
258 187
259 187
260 187
261 187
262 187
263 187
264 187
265 187
266 187
267 187
268 187
269 187
270 187
271 187
272 187
273 187
274 187
275 187
276 187
277 187
278 187
279 187
280 187
281 187
282 187
283 187
284 187
285 187
286 187
287 187
288 187
289 187
290 187
291 187
292 187
293 187
294 187
295 187
296 187
297 187
298 187
299 187
300 187
301 187
194 188
195 188
196 188
197 188
198 188
199 188
200 188
201 188
202 188
203 188
204 188
205 188
206 188
207 188
208 188
209 188
210 188
211 188
212 188
213 188
214 188
215 188
216 188
217 188
218 188
219 188
220 188
221 188
222 188
223 188
224 188
225 188
226 188
227 188
228 188
229 188
230 188
231 188
232 188
233 188
234 188
235 188
236 188
237 188
238 188
239 188
240 188
241 188
242 188
243 188
244 188
245 188
246 188
247 188
248 188
249 188
250 188
251 188
252 188
253 188
254 188
255 188
256 188
257 188
258 188
259 188
260 188
261 188
262 188
263 188
264 188
265 188
266 188
267 188
268 188
269 188
270 188
271 188
272 188
273 188
274 188
275 188
276 188
277 188
278 188
279 188
280 188
281 188
282 188
283 188
284 188
285 188
286 188
287 188
288 188
289 188
290 188
291 188
292 188
293 188
294 188
295 188
296 188
297 188
298 188
299 188
300 188
301 188
194 189
195 189
196 189
197 189
198 189
199 189
200 189
201 189
202 189
203 189
204 189
205 189
206 189
207 189
208 189
209 189
210 189
211 189
212 189
213 189
214 189
215 189
216 189
217 189
218 189
219 189
220 189
221 189
222 189
223 189
224 189
225 189
226 189
227 189
228 189
229 189
230 189
231 189
232 189
233 189
234 189
235 189
236 189
237 189
238 189
239 189
240 189
241 189
242 189
243 189
244 189
245 189
246 189
247 189
248 189
249 189
250 189
251 189
252 189
253 189
254 189
255 189
256 189
257 189
258 189
259 189
260 189
261 189
262 189
263 189
264 189
265 189
266 189
267 189
268 189
269 189
270 189
271 189
272 189
273 189
274 189
275 189
276 189
277 189
278 189
279 189
280 189
281 189
282 189
283 189
284 189
285 189
286 189
287 189
288 189
289 189
290 189
291 189
292 189
293 189
294 189
295 189
296 189
297 189
298 189
299 189
300 189
301 189
194 190
195 190
196 190
197 190
198 190
199 190
200 190
201 190
202 190
203 190
204 190
205 190
206 190
207 190
208 190
209 190
210 190
211 190
212 190
213 190
214 190
215 190
216 190
217 190
218 190
219 190
220 190
221 190
222 190
223 190
224 190
225 190
226 190
227 190
228 190
229 190
230 190
231 190
232 190
233 190
234 190
235 190
236 190
237 190
238 190
239 190
240 190
241 190
242 190
243 190
244 190
245 190
246 190
247 190
248 190
249 190
250 190
251 190
252 190
253 190
254 190
255 190
256 190
257 190
258 190
259 190
260 190
261 190
262 190
263 190
264 190
265 190
266 190
267 190
268 190
269 190
270 190
271 190
272 190
273 190
274 190
275 190
276 190
277 190
278 190
279 190
280 190
281 190
282 190
283 190
284 190
285 190
286 190
287 190
288 190
289 190
290 190
291 190
292 190
293 190
294 190
295 190
296 190
297 190
298 190
299 190
300 190
301 190
194 191
195 191
196 191
197 191
198 191
199 191
200 191
201 191
202 191
203 191
204 191
205 191
206 191
207 191
208 191
209 191
210 191
211 191
212 191
213 191
214 191
215 191
216 191
217 191
218 191
219 191
220 191
221 191
222 191
223 191
224 191
225 191
226 191
227 191
228 191
229 191
230 191
231 191
232 191
233 191
234 191
235 191
236 191
237 191
238 191
239 191
240 191
241 191
242 191
243 191
244 191
245 191
246 191
247 191
248 191
249 191
250 191
251 191
252 191
253 191
254 191
255 191
256 191
257 191
258 191
259 191
260 191
261 191
262 191
263 191
264 191
265 191
266 191
267 191
268 191
269 191
270 191
271 191
272 191
273 191
274 191
275 191
276 191
277 191
278 191
279 191
280 191
281 191
282 191
283 191
284 191
285 191
286 191
287 191
288 191
289 191
290 191
291 191
292 191
293 191
294 191
295 191
296 191
297 191
298 191
299 191
300 191
301 191
194 192
195 192
196 192
197 192
198 192
199 192
200 192
201 192
202 192
203 192
204 192
205 192
206 192
207 192
208 192
209 192
210 192
211 192
212 192
213 192
214 192
215 192
216 192
217 192
218 192
219 192
220 192
221 192
222 192
223 192
224 192
225 192
226 192
227 192
228 192
229 192
230 192
231 192
232 192
233 192
234 192
235 192
236 192
237 192
238 192
239 192
240 192
241 192
242 192
243 192
244 192
245 192
246 192
247 192
248 192
249 192
250 192
251 192
252 192
253 192
254 192
255 192
256 192
257 192
258 192
259 192
260 192
261 192
262 192
263 192
264 192
265 192
266 192
267 192
268 192
269 192
270 192
271 192
272 192
273 192
274 192
275 192
276 192
277 192
278 192
279 192
280 192
281 192
282 192
283 192
284 192
285 192
286 192
287 192
288 192
289 192
290 192
291 192
292 192
293 192
294 192
295 192
296 192
297 192
298 192
299 192
300 192
301 192
194 193
195 193
196 193
197 193
198 193
199 193
200 193
201 193
202 193
203 193
204 193
205 193
206 193
207 193
208 193
209 193
210 193
211 193
212 193
213 193
214 193
215 193
216 193
217 193
218 193
219 193
220 193
221 193
222 193
223 193
224 193
225 193
226 193
227 193
228 193
229 193
230 193
231 193
232 193
233 193
234 193
235 193
236 193
237 193
238 193
239 193
240 193
241 193
242 193
243 193
244 193
245 193
246 193
247 193
248 193
249 193
250 193
251 193
252 193
253 193
254 193
255 193
256 193
257 193
258 193
259 193
260 193
261 193
262 193
263 193
264 193
265 193
266 193
267 193
268 193
269 193
270 193
271 193
272 193
273 193
274 193
275 193
276 193
277 193
278 193
279 193
280 193
281 193
282 193
283 193
284 193
285 193
286 193
287 193
288 193
289 193
290 193
291 193
292 193
293 193
294 193
295 193
296 193
297 193
298 193
299 193
300 193
301 193
194 194
195 194
196 194
197 194
198 194
199 194
200 194
201 194
202 194
203 194
204 194
205 194
206 194
207 194
208 194
209 194
210 194
211 194
212 194
213 194
214 194
215 194
216 194
217 194
218 194
219 194
220 194
221 194
222 194
223 194
224 194
225 194
226 194
227 194
228 194
229 194
230 194
231 194
232 194
233 194
234 194
235 194
236 194
237 194
238 194
239 194
240 194
241 194
242 194
243 194
244 194
245 194
246 194
247 194
248 194
249 194
250 194
251 194
252 194
253 194
254 194
255 194
256 194
257 194
258 194
259 194
260 194
261 194
262 194
263 194
264 194
265 194
266 194
267 194
268 194
269 194
270 194
271 194
272 194
273 194
274 194
275 194
276 194
277 194
278 194
279 194
280 194
281 194
282 194
283 194
284 194
285 194
286 194
287 194
288 194
289 194
290 194
291 194
292 194
293 194
294 194
295 194
296 194
297 194
298 194
299 194
300 194
301 194
346 239
347 239
348 239
349 239
350 239
351 239
352 239
353 239
354 239
355 239
356 239
357 239
358 239
359 239
360 239
361 239
362 239
363 239
364 239
365 239
366 239
367 239
368 239
369 239
370 239
371 239
372 239
373 239
374 239
375 239
376 239
377 239
378 239
379 239
380 239
381 239
382 239
383 239
384 239
385 239
386 239
387 239
388 239
389 239
390 239
391 239
392 239
393 239
394 239
395 239
396 239
397 239
398 239
399 239
400 239
401 239
402 239
403 239
404 239
405 239
406 239
407 239
408 239
409 239
410 239
411 239
412 239
413 239
414 239
415 239
416 239
417 239
418 239
419 239
420 239
421 239
422 239
423 239
424 239
425 239
426 239
427 239
428 239
429 239
430 239
431 239
432 239
433 239
434 239
435 239
436 239
437 239
438 239
439 239
440 239
441 239
442 239
443 239
444 239
445 239
446 239
447 239
448 239
449 239
450 239
451 239
452 239
453 239
346 240
347 240
348 240
349 240
350 240
351 240
352 240
353 240
354 240
355 240
356 240
357 240
358 240
359 240
360 240
361 240
362 240
363 240
364 240
365 240
366 240
367 240
368 240
369 240
370 240
371 240
372 240
373 240
374 240
375 240
376 240
377 240
378 240
379 240
380 240
381 240
382 240
383 240
384 240
385 240
386 240
387 240
388 240
389 240
390 240
391 240
392 240
393 240
394 240
395 240
396 240
397 240
398 240
399 240
400 240
401 240
402 240
403 240
404 240
405 240
406 240
407 240
408 240
409 240
410 240
411 240
412 240
413 240
414 240
415 240
416 240
417 240
418 240
419 240
420 240
421 240
422 240
423 240
424 240
425 240
426 240
427 240
428 240
429 240
430 240
431 240
432 240
433 240
434 240
435 240
436 240
437 240
438 240
439 240
440 240
441 240
442 240
443 240
444 240
445 240
446 240
447 240
448 240
449 240
450 240
451 240
452 240
453 240
346 241
347 241
348 241
349 241
350 241
351 241
352 241
353 241
354 241
355 241
356 241
357 241
358 241
359 241
360 241
361 241
362 241
363 241
364 241
365 241
366 241
367 241
368 241
369 241
370 241
371 241
372 241
373 241
374 241
375 241
376 241
377 241
378 241
379 241
380 241
381 241
382 241
383 241
384 241
385 241
386 241
387 241
388 241
389 241
390 241
391 241
392 241
393 241
394 241
395 241
396 241
397 241
398 241
399 241
400 241
401 241
402 241
403 241
404 241
405 241
406 241
407 241
408 241
409 241
410 241
411 241
412 241
413 241
414 241
415 241
416 241
417 241
418 241
419 241
420 241
421 241
422 241
423 241
424 241
425 241
426 241
427 241
428 241
429 241
430 241
431 241
432 241
433 241
434 241
435 241
436 241
437 241
438 241
439 241
440 241
441 241
442 241
443 241
444 241
445 241
446 241
447 241
448 241
449 241
450 241
451 241
452 241
453 241
346 242
347 242
348 242
349 242
350 242
351 242
352 242
353 242
354 242
355 242
356 242
357 242
358 242
359 242
360 242
361 242
362 242
363 242
364 242
365 242
366 242
367 242
368 242
369 242
370 242
371 242
372 242
373 242
374 242
375 242
376 242
377 242
378 242
379 242
380 242
381 242
382 242
383 242
384 242
385 242
386 242
387 242
388 242
389 242
390 242
391 242
392 242
393 242
394 242
395 242
396 242
397 242
398 242
399 242
400 242
401 242
402 242
403 242
404 242
405 242
406 242
407 242
408 242
409 242
410 242
411 242
412 242
413 242
414 242
415 242
416 242
417 242
418 242
419 242
420 242
421 242
422 242
423 242
424 242
425 242
426 242
427 242
428 242
429 242
430 242
431 242
432 242
433 242
434 242
435 242
436 242
437 242
438 242
439 242
440 242
441 242
442 242
443 242
444 242
445 242
446 242
447 242
448 242
449 242
450 242
451 242
452 242
453 242
346 243
347 243
348 243
349 243
350 243
351 243
352 243
353 243
354 243
355 243
356 243
357 243
358 243
359 243
360 243
361 243
362 243
363 243
364 243
365 243
366 243
367 243
368 243
369 243
370 243
371 243
372 243
373 243
374 243
375 243
376 243
377 243
378 243
379 243
380 243
381 243
382 243
383 243
384 243
385 243
386 243
387 243
388 243
389 243
390 243
391 243
392 243
393 243
394 243
395 243
396 243
397 243
398 243
399 243
400 243
401 243
402 243
403 243
404 243
405 243
406 243
407 243
408 243
409 243
410 243
411 243
412 243
413 243
414 243
415 243
416 243
417 243
418 243
419 243
420 243
421 243
422 243
423 243
424 243
425 243
426 243
427 243
428 243
429 243
430 243
431 243
432 243
433 243
434 243
435 243
436 243
437 243
438 243
439 243
440 243
441 243
442 243
443 243
444 243
445 243
446 243
447 243
448 243
449 243
450 243
451 243
452 243
453 243
346 244
347 244
348 244
349 244
350 244
351 244
352 244
353 244
354 244
355 244
356 244
357 244
358 244
359 244
360 244
361 244
362 244
363 244
364 244
365 244
366 244
367 244
368 244
369 244
370 244
371 244
372 244
373 244
374 244
375 244
376 244
377 244
378 244
379 244
380 244
381 244
382 244
383 244
384 244
385 244
386 244
387 244
388 244
389 244
390 244
391 244
392 244
393 244
394 244
395 244
396 244
397 244
398 244
399 244
400 244
401 244
402 244
403 244
404 244
405 244
406 244
407 244
408 244
409 244
410 244
411 244
412 244
413 244
414 244
415 244
416 244
417 244
418 244
419 244
420 244
421 244
422 244
423 244
424 244
425 244
426 244
427 244
428 244
429 244
430 244
431 244
432 244
433 244
434 244
435 244
436 244
437 244
438 244
439 244
440 244
441 244
442 244
443 244
444 244
445 244
446 244
447 244
448 244
449 244
450 244
451 244
452 244
453 244
346 245
347 245
348 245
349 245
350 245
351 245
352 245
353 245
354 245
355 245
356 245
357 245
358 245
359 245
360 245
361 245
362 245
363 245
364 245
365 245
366 245
367 245
368 245
369 245
370 245
371 245
372 245
373 245
374 245
375 245
376 245
377 245
378 245
379 245
380 245
381 245
382 245
383 245
384 245
385 245
386 245
387 245
388 245
389 245
390 245
391 245
392 245
393 245
394 245
395 245
396 245
397 245
398 245
399 245
400 245
401 245
402 245
403 245
404 245
405 245
406 245
407 245
408 245
409 245
410 245
411 245
412 245
413 245
414 245
415 245
416 245
417 245
418 245
419 245
420 245
421 245
422 245
423 245
424 245
425 245
426 245
427 245
428 245
429 245
430 245
431 245
432 245
433 245
434 245
435 245
436 245
437 245
438 245
439 245
440 245
441 245
442 245
443 245
444 245
445 245
446 245
447 245
448 245
449 245
450 245
451 245
452 245
453 245
346 246
347 246
348 246
349 246
350 246
351 246
352 246
353 246
354 246
355 246
356 246
357 246
358 246
359 246
360 246
361 246
362 246
363 246
364 246
365 246
366 246
367 246
368 246
369 246
370 246
371 246
372 246
373 246
374 246
375 246
376 246
377 246
378 246
379 246
380 246
381 246
382 246
383 246
384 246
385 246
386 246
387 246
388 246
389 246
390 246
391 246
392 246
393 246
394 246
395 246
396 246
397 246
398 246
399 246
400 246
401 246
402 246
403 246
404 246
405 246
406 246
407 246
408 246
409 246
410 246
411 246
412 246
413 246
414 246
415 246
416 246
417 246
418 246
419 246
420 246
421 246
422 246
423 246
424 246
425 246
426 246
427 246
428 246
429 246
430 246
431 246
432 246
433 246
434 246
435 246
436 246
437 246
438 246
439 246
440 246
441 246
442 246
443 246
444 246
445 246
446 246
447 246
448 246
449 246
450 246
451 246
452 246
453 246
346 247
347 247
348 247
349 247
350 247
351 247
352 247
353 247
354 247
355 247
356 247
357 247
358 247
359 247
360 247
361 247
362 247
363 247
364 247
365 247
366 247
367 247
368 247
369 247
370 247
371 247
372 247
373 247
374 247
375 247
376 247
377 247
378 247
379 247
380 247
381 247
382 247
383 247
384 247
385 247
386 247
387 247
388 247
389 247
390 247
391 247
392 247
393 247
394 247
395 247
396 247
397 247
398 247
399 247
400 247
401 247
402 247
403 247
404 247
405 247
406 247
407 247
408 247
409 247
410 247
411 247
412 247
413 247
414 247
415 247
416 247
417 247
418 247
419 247
420 247
421 247
422 247
423 247
424 247
425 247
426 247
427 247
428 247
429 247
430 247
431 247
432 247
433 247
434 247
435 247
436 247
437 247
438 247
439 247
440 247
441 247
442 247
443 247
444 247
445 247
446 247
447 247
448 247
449 247
450 247
451 247
452 247
453 247
346 248
347 248
348 248
349 248
350 248
351 248
352 248
353 248
354 248
355 248
356 248
357 248
358 248
359 248
360 248
361 248
362 248
363 248
364 248
365 248
366 248
367 248
368 248
369 248
370 248
371 248
372 248
373 248
374 248
375 248
376 248
377 248
378 248
379 248
380 248
381 248
382 248
383 248
384 248
385 248
386 248
387 248
388 248
389 248
390 248
391 248
392 248
393 248
394 248
395 248
396 248
397 248
398 248
399 248
400 248
401 248
402 248
403 248
404 248
405 248
406 248
407 248
408 248
409 248
410 248
411 248
412 248
413 248
414 248
415 248
416 248
417 248
418 248
419 248
420 248
421 248
422 248
423 248
424 248
425 248
426 248
427 248
428 248
429 248
430 248
431 248
432 248
433 248
434 248
435 248
436 248
437 248
438 248
439 248
440 248
441 248
442 248
443 248
444 248
445 248
446 248
447 248
448 248
449 248
450 248
451 248
452 248
453 248
346 249
347 249
348 249
349 249
350 249
351 249
352 249
353 249
354 249
355 249
356 249
357 249
358 249
359 249
360 249
361 249
362 249
363 249
364 249
365 249
366 249
367 249
368 249
369 249
370 249
371 249
372 249
373 249
374 249
375 249
376 249
377 249
378 249
379 249
380 249
381 249
382 249
383 249
384 249
385 249
386 249
387 249
388 249
389 249
390 249
391 249
392 249
393 249
394 249
395 249
396 249
397 249
398 249
399 249
400 249
401 249
402 249
403 249
404 249
405 249
406 249
407 249
408 249
409 249
410 249
411 249
412 249
413 249
414 249
415 249
416 249
417 249
418 249
419 249
420 249
421 249
422 249
423 249
424 249
425 249
426 249
427 249
428 249
429 249
430 249
431 249
432 249
433 249
434 249
435 249
436 249
437 249
438 249
439 249
440 249
441 249
442 249
443 249
444 249
445 249
446 249
447 249
448 249
449 249
450 249
451 249
452 249
453 249
346 250
347 250
348 250
349 250
350 250
351 250
352 250
353 250
354 250
355 250
356 250
357 250
358 250
359 250
360 250
361 250
362 250
363 250
364 250
365 250
366 250
367 250
368 250
369 250
370 250
371 250
372 250
373 250
374 250
375 250
376 250
377 250
378 250
379 250
380 250
381 250
382 250
383 250
384 250
385 250
386 250
387 250
388 250
389 250
390 250
391 250
392 250
393 250
394 250
395 250
396 250
397 250
398 250
399 250
400 250
401 250
402 250
403 250
404 250
405 250
406 250
407 250
408 250
409 250
410 250
411 250
412 250
413 250
414 250
415 250
416 250
417 250
418 250
419 250
420 250
421 250
422 250
423 250
424 250
425 250
426 250
427 250
428 250
429 250
430 250
431 250
432 250
433 250
434 250
435 250
436 250
437 250
438 250
439 250
440 250
441 250
442 250
443 250
444 250
445 250
446 250
447 250
448 250
449 250
450 250
451 250
452 250
453 250
346 251
347 251
348 251
349 251
350 251
351 251
352 251
353 251
354 251
355 251
356 251
357 251
358 251
359 251
360 251
361 251
362 251
363 251
364 251
365 251
366 251
367 251
368 251
369 251
370 251
371 251
372 251
373 251
374 251
375 251
376 251
377 251
378 251
379 251
380 251
381 251
382 251
383 251
384 251
385 251
386 251
387 251
388 251
389 251
390 251
391 251
392 251
393 251
394 251
395 251
396 251
397 251
398 251
399 251
400 251
401 251
402 251
403 251
404 251
405 251
406 251
407 251
408 251
409 251
410 251
411 251
412 251
413 251
414 251
415 251
416 251
417 251
418 251
419 251
420 251
421 251
422 251
423 251
424 251
425 251
426 251
427 251
428 251
429 251
430 251
431 251
432 251
433 251
434 251
435 251
436 251
437 251
438 251
439 251
440 251
441 251
442 251
443 251
444 251
445 251
446 251
447 251
448 251
449 251
450 251
451 251
452 251
453 251
346 252
347 252
348 252
349 252
350 252
351 252
352 252
353 252
354 252
355 252
356 252
357 252
358 252
359 252
360 252
361 252
362 252
363 252
364 252
365 252
366 252
367 252
368 252
369 252
370 252
371 252
372 252
373 252
374 252
375 252
376 252
377 252
378 252
379 252
380 252
381 252
382 252
383 252
384 252
385 252
386 252
387 252
388 252
389 252
390 252
391 252
392 252
393 252
394 252
395 252
396 252
397 252
398 252
399 252
400 252
401 252
402 252
403 252
404 252
405 252
406 252
407 252
408 252
409 252
410 252
411 252
412 252
413 252
414 252
415 252
416 252
417 252
418 252
419 252
420 252
421 252
422 252
423 252
424 252
425 252
426 252
427 252
428 252
429 252
430 252
431 252
432 252
433 252
434 252
435 252
436 252
437 252
438 252
439 252
440 252
441 252
442 252
443 252
444 252
445 252
446 252
447 252
448 252
449 252
450 252
451 252
452 252
453 252
346 253
347 253
348 253
349 253
350 253
351 253
352 253
353 253
354 253
355 253
356 253
357 253
358 253
359 253
360 253
361 253
362 253
363 253
364 253
365 253
366 253
367 253
368 253
369 253
370 253
371 253
372 253
373 253
374 253
375 253
376 253
377 253
378 253
379 253
380 253
381 253
382 253
383 253
384 253
385 253
386 253
387 253
388 253
389 253
390 253
391 253
392 253
393 253
394 253
395 253
396 253
397 253
398 253
399 253
400 253
401 253
402 253
403 253
404 253
405 253
406 253
407 253
408 253
409 253
410 253
411 253
412 253
413 253
414 253
415 253
416 253
417 253
418 253
419 253
420 253
421 253
422 253
423 253
424 253
425 253
426 253
427 253
428 253
429 253
430 253
431 253
432 253
433 253
434 253
435 253
436 253
437 253
438 253
439 253
440 253
441 253
442 253
443 253
444 253
445 253
446 253
447 253
448 253
449 253
450 253
451 253
452 253
453 253
346 254
347 254
348 254
349 254
350 254
351 254
352 254
353 254
354 254
355 254
356 254
357 254
358 254
359 254
360 254
361 254
362 254
363 254
364 254
365 254
366 254
367 254
368 254
369 254
370 254
371 254
372 254
373 254
374 254
375 254
376 254
377 254
378 254
379 254
380 254
381 254
382 254
383 254
384 254
385 254
386 254
387 254
388 254
389 254
390 254
391 254
392 254
393 254
394 254
395 254
396 254
397 254
398 254
399 254
400 254
401 254
402 254
403 254
404 254
405 254
406 254
407 254
408 254
409 254
410 254
411 254
412 254
413 254
414 254
415 254
416 254
417 254
418 254
419 254
420 254
421 254
422 254
423 254
424 254
425 254
426 254
427 254
428 254
429 254
430 254
431 254
432 254
433 254
434 254
435 254
436 254
437 254
438 254
439 254
440 254
441 254
442 254
443 254
444 254
445 254
446 254
447 254
448 254
449 254
450 254
451 254
452 254
453 254
346 255
347 255
348 255
349 255
350 255
351 255
352 255
353 255
354 255
355 255
356 255
357 255
358 255
359 255
360 255
361 255
362 255
363 255
364 255
365 255
366 255
367 255
368 255
369 255
370 255
371 255
372 255
373 255
374 255
375 255
376 255
377 255
378 255
379 255
380 255
381 255
382 255
383 255
384 255
385 255
386 255
387 255
388 255
389 255
390 255
391 255
392 255
393 255
394 255
395 255
396 255
397 255
398 255
399 255
400 255
401 255
402 255
403 255
404 255
405 255
406 255
407 255
408 255
409 255
410 255
411 255
412 255
413 255
414 255
415 255
416 255
417 255
418 255
419 255
420 255
421 255
422 255
423 255
424 255
425 255
426 255
427 255
428 255
429 255
430 255
431 255
432 255
433 255
434 255
435 255
436 255
437 255
438 255
439 255
440 255
441 255
442 255
443 255
444 255
445 255
446 255
447 255
448 255
449 255
450 255
451 255
452 255
453 255
346 256
347 256
348 256
349 256
350 256
351 256
352 256
353 256
354 256
355 256
356 256
357 256
358 256
359 256
360 256
361 256
362 256
363 256
364 256
365 256
366 256
367 256
368 256
369 256
370 256
371 256
372 256
373 256
374 256
375 256
376 256
377 256
378 256
379 256
380 256
381 256
382 256
383 256
384 256
385 256
386 256
387 256
388 256
389 256
390 256
391 256
392 256
393 256
394 256
395 256
396 256
397 256
398 256
399 256
400 256
401 256
402 256
403 256
404 256
405 256
406 256
407 256
408 256
409 256
410 256
411 256
412 256
413 256
414 256
415 256
416 256
417 256
418 256
419 256
420 256
421 256
422 256
423 256
424 256
425 256
426 256
427 256
428 256
429 256
430 256
431 256
432 256
433 256
434 256
435 256
436 256
437 256
438 256
439 256
440 256
441 256
442 256
443 256
444 256
445 256
446 256
447 256
448 256
449 256
450 256
451 256
452 256
453 256
346 257
347 257
348 257
349 257
350 257
351 257
352 257
353 257
354 257
355 257
356 257
357 257
358 257
359 257
360 257
361 257
362 257
363 257
364 257
365 257
366 257
367 257
368 257
369 257
370 257
371 257
372 257
373 257
374 257
375 257
376 257
377 257
378 257
379 257
380 257
381 257
382 257
383 257
384 257
385 257
386 257
387 257
388 257
389 257
390 257
391 257
392 257
393 257
394 257
395 257
396 257
397 257
398 257
399 257
400 257
401 257
402 257
403 257
404 257
405 257
406 257
407 257
408 257
409 257
410 257
411 257
412 257
413 257
414 257
415 257
416 257
417 257
418 257
419 257
420 257
421 257
422 257
423 257
424 257
425 257
426 257
427 257
428 257
429 257
430 257
431 257
432 257
433 257
434 257
435 257
436 257
437 257
438 257
439 257
440 257
441 257
442 257
443 257
444 257
445 257
446 257
447 257
448 257
449 257
450 257
451 257
452 257
453 257
346 258
347 258
348 258
349 258
350 258
351 258
352 258
353 258
354 258
355 258
356 258
357 258
358 258
359 258
360 258
361 258
362 258
363 258
364 258
365 258
366 258
367 258
368 258
369 258
370 258
371 258
372 258
373 258
374 258
375 258
376 258
377 258
378 258
379 258
380 258
381 258
382 258
383 258
384 258
385 258
386 258
387 258
388 258
389 258
390 258
391 258
392 258
393 258
394 258
395 258
396 258
397 258
398 258
399 258
400 258
401 258
402 258
403 258
404 258
405 258
406 258
407 258
408 258
409 258
410 258
411 258
412 258
413 258
414 258
415 258
416 258
417 258
418 258
419 258
420 258
421 258
422 258
423 258
424 258
425 258
426 258
427 258
428 258
429 258
430 258
431 258
432 258
433 258
434 258
435 258
436 258
437 258
438 258
439 258
440 258
441 258
442 258
443 258
444 258
445 258
446 258
447 258
448 258
449 258
450 258
451 258
452 258
453 258
346 259
347 259
348 259
349 259
350 259
351 259
352 259
353 259
354 259
355 259
356 259
357 259
358 259
359 259
360 259
361 259
362 259
363 259
364 259
365 259
366 259
367 259
368 259
369 259
370 259
371 259
372 259
373 259
374 259
375 259
376 259
377 259
378 259
379 259
380 259
381 259
382 259
383 259
384 259
385 259
386 259
387 259
388 259
389 259
390 259
391 259
392 259
393 259
394 259
395 259
396 259
397 259
398 259
399 259
400 259
401 259
402 259
403 259
404 259
405 259
406 259
407 259
408 259
409 259
410 259
411 259
412 259
413 259
414 259
415 259
416 259
417 259
418 259
419 259
420 259
421 259
422 259
423 259
424 259
425 259
426 259
427 259
428 259
429 259
430 259
431 259
432 259
433 259
434 259
435 259
436 259
437 259
438 259
439 259
440 259
441 259
442 259
443 259
444 259
445 259
446 259
447 259
448 259
449 259
450 259
451 259
452 259
453 259
346 260
347 260
348 260
349 260
350 260
351 260
352 260
353 260
354 260
355 260
356 260
357 260
358 260
359 260
360 260
361 260
362 260
363 260
364 260
365 260
366 260
367 260
368 260
369 260
370 260
371 260
372 260
373 260
374 260
375 260
376 260
377 260
378 260
379 260
380 260
381 260
382 260
383 260
384 260
385 260
386 260
387 260
388 260
389 260
390 260
391 260
392 260
393 260
394 260
395 260
396 260
397 260
398 260
399 260
400 260
401 260
402 260
403 260
404 260
405 260
406 260
407 260
408 260
409 260
410 260
411 260
412 260
413 260
414 260
415 260
416 260
417 260
418 260
419 260
420 260
421 260
422 260
423 260
424 260
425 260
426 260
427 260
428 260
429 260
430 260
431 260
432 260
433 260
434 260
435 260
436 260
437 260
438 260
439 260
440 260
441 260
442 260
443 260
444 260
445 260
446 260
447 260
448 260
449 260
450 260
451 260
452 260
453 260
346 261
347 261
348 261
349 261
350 261
351 261
352 261
353 261
354 261
355 261
356 261
357 261
358 261
359 261
360 261
361 261
362 261
363 261
364 261
365 261
366 261
367 261
368 261
369 261
370 261
371 261
372 261
373 261
374 261
375 261
376 261
377 261
378 261
379 261
380 261
381 261
382 261
383 261
384 261
385 261
386 261
387 261
388 261
389 261
390 261
391 261
392 261
393 261
394 261
395 261
396 261
397 261
398 261
399 261
400 261
401 261
402 261
403 261
404 261
405 261
406 261
407 261
408 261
409 261
410 261
411 261
412 261
413 261
414 261
415 261
416 261
417 261
418 261
419 261
420 261
421 261
422 261
423 261
424 261
425 261
426 261
427 261
428 261
429 261
430 261
431 261
432 261
433 261
434 261
435 261
436 261
437 261
438 261
439 261
440 261
441 261
442 261
443 261
444 261
445 261
446 261
447 261
448 261
449 261
450 261
451 261
452 261
453 261
346 262
347 262
348 262
349 262
350 262
351 262
352 262
353 262
354 262
355 262
356 262
357 262
358 262
359 262
360 262
361 262
362 262
363 262
364 262
365 262
366 262
367 262
368 262
369 262
370 262
371 262
372 262
373 262
374 262
375 262
376 262
377 262
378 262
379 262
380 262
381 262
382 262
383 262
384 262
385 262
386 262
387 262
388 262
389 262
390 262
391 262
392 262
393 262
394 262
395 262
396 262
397 262
398 262
399 262
400 262
401 262
402 262
403 262
404 262
405 262
406 262
407 262
408 262
409 262
410 262
411 262
412 262
413 262
414 262
415 262
416 262
417 262
418 262
419 262
420 262
421 262
422 262
423 262
424 262
425 262
426 262
427 262
428 262
429 262
430 262
431 262
432 262
433 262
434 262
435 262
436 262
437 262
438 262
439 262
440 262
441 262
442 262
443 262
444 262
445 262
446 262
447 262
448 262
449 262
450 262
451 262
452 262
453 262
346 263
347 263
348 263
349 263
350 263
351 263
352 263
353 263
354 263
355 263
356 263
357 263
358 263
359 263
360 263
361 263
362 263
363 263
364 263
365 263
366 263
367 263
368 263
369 263
370 263
371 263
372 263
373 263
374 263
375 263
376 263
377 263
378 263
379 263
380 263
381 263
382 263
383 263
384 263
385 263
386 263
387 263
388 263
389 263
390 263
391 263
392 263
393 263
394 263
395 263
396 263
397 263
398 263
399 263
400 263
401 263
402 263
403 263
404 263
405 263
406 263
407 263
408 263
409 263
410 263
411 263
412 263
413 263
414 263
415 263
416 263
417 263
418 263
419 263
420 263
421 263
422 263
423 263
424 263
425 263
426 263
427 263
428 263
429 263
430 263
431 263
432 263
433 263
434 263
435 263
436 263
437 263
438 263
439 263
440 263
441 263
442 263
443 263
444 263
445 263
446 263
447 263
448 263
449 263
450 263
451 263
452 263
453 263
346 264
347 264
348 264
349 264
350 264
351 264
352 264
353 264
354 264
355 264
356 264
357 264
358 264
359 264
360 264
361 264
362 264
363 264
364 264
365 264
366 264
367 264
368 264
369 264
370 264
371 264
372 264
373 264
374 264
375 264
376 264
377 264
378 264
379 264
380 264
381 264
382 264
383 264
384 264
385 264
386 264
387 264
388 264
389 264
390 264
391 264
392 264
393 264
394 264
395 264
396 264
397 264
398 264
399 264
400 264
401 264
402 264
403 264
404 264
405 264
406 264
407 264
408 264
409 264
410 264
411 264
412 264
413 264
414 264
415 264
416 264
417 264
418 264
419 264
420 264
421 264
422 264
423 264
424 264
425 264
426 264
427 264
428 264
429 264
430 264
431 264
432 264
433 264
434 264
435 264
436 264
437 264
438 264
439 264
440 264
441 264
442 264
443 264
444 264
445 264
446 264
447 264
448 264
449 264
450 264
451 264
452 264
453 264
346 265
347 265
348 265
349 265
350 265
351 265
352 265
353 265
354 265
355 265
356 265
357 265
358 265
359 265
360 265
361 265
362 265
363 265
364 265
365 265
366 265
367 265
368 265
369 265
370 265
371 265
372 265
373 265
374 265
375 265
376 265
377 265
378 265
379 265
380 265
381 265
382 265
383 265
384 265
385 265
386 265
387 265
388 265
389 265
390 265
391 265
392 265
393 265
394 265
395 265
396 265
397 265
398 265
399 265
400 265
401 265
402 265
403 265
404 265
405 265
406 265
407 265
408 265
409 265
410 265
411 265
412 265
413 265
414 265
415 265
416 265
417 265
418 265
419 265
420 265
421 265
422 265
423 265
424 265
425 265
426 265
427 265
428 265
429 265
430 265
431 265
432 265
433 265
434 265
435 265
436 265
437 265
438 265
439 265
440 265
441 265
442 265
443 265
444 265
445 265
446 265
447 265
448 265
449 265
450 265
451 265
452 265
453 265
346 266
347 266
348 266
349 266
350 266
351 266
352 266
353 266
354 266
355 266
356 266
357 266
358 266
359 266
360 266
361 266
362 266
363 266
364 266
365 266
366 266
367 266
368 266
369 266
370 266
371 266
372 266
373 266
374 266
375 266
376 266
377 266
378 266
379 266
380 266
381 266
382 266
383 266
384 266
385 266
386 266
387 266
388 266
389 266
390 266
391 266
392 266
393 266
394 266
395 266
396 266
397 266
398 266
399 266
400 266
401 266
402 266
403 266
404 266
405 266
406 266
407 266
408 266
409 266
410 266
411 266
412 266
413 266
414 266
415 266
416 266
417 266
418 266
419 266
420 266
421 266
422 266
423 266
424 266
425 266
426 266
427 266
428 266
429 266
430 266
431 266
432 266
433 266
434 266
435 266
436 266
437 266
438 266
439 266
440 266
441 266
442 266
443 266
444 266
445 266
446 266
447 266
448 266
449 266
450 266
451 266
452 266
453 266
346 267
347 267
348 267
349 267
350 267
351 267
352 267
353 267
354 267
355 267
356 267
357 267
358 267
359 267
360 267
361 267
362 267
363 267
364 267
365 267
366 267
367 267
368 267
369 267
370 267
371 267
372 267
373 267
374 267
375 267
376 267
377 267
378 267
379 267
380 267
381 267
382 267
383 267
384 267
385 267
386 267
387 267
388 267
389 267
390 267
391 267
392 267
393 267
394 267
395 267
396 267
397 267
398 267
399 267
400 267
401 267
402 267
403 267
404 267
405 267
406 267
407 267
408 267
409 267
410 267
411 267
412 267
413 267
414 267
415 267
416 267
417 267
418 267
419 267
420 267
421 267
422 267
423 267
424 267
425 267
426 267
427 267
428 267
429 267
430 267
431 267
432 267
433 267
434 267
435 267
436 267
437 267
438 267
439 267
440 267
441 267
442 267
443 267
444 267
445 267
446 267
447 267
448 267
449 267
450 267
451 267
452 267
453 267
346 268
347 268
348 268
349 268
350 268
351 268
352 268
353 268
354 268
355 268
356 268
357 268
358 268
359 268
360 268
361 268
362 268
363 268
364 268
365 268
366 268
367 268
368 268
369 268
370 268
371 268
372 268
373 268
374 268
375 268
376 268
377 268
378 268
379 268
380 268
381 268
382 268
383 268
384 268
385 268
386 268
387 268
388 268
389 268
390 268
391 268
392 268
393 268
394 268
395 268
396 268
397 268
398 268
399 268
400 268
401 268
402 268
403 268
404 268
405 268
406 268
407 268
408 268
409 268
410 268
411 268
412 268
413 268
414 268
415 268
416 268
417 268
418 268
419 268
420 268
421 268
422 268
423 268
424 268
425 268
426 268
427 268
428 268
429 268
430 268
431 268
432 268
433 268
434 268
435 268
436 268
437 268
438 268
439 268
440 268
441 268
442 268
443 268
444 268
445 268
446 268
447 268
448 268
449 268
450 268
451 268
452 268
453 268
346 269
347 269
348 269
349 269
350 269
351 269
352 269
353 269
354 269
355 269
356 269
357 269
358 269
359 269
360 269
361 269
362 269
363 269
364 269
365 269
366 269
367 269
368 269
369 269
370 269
371 269
372 269
373 269
374 269
375 269
376 269
377 269
378 269
379 269
380 269
381 269
382 269
383 269
384 269
385 269
386 269
387 269
388 269
389 269
390 269
391 269
392 269
393 269
394 269
395 269
396 269
397 269
398 269
399 269
400 269
401 269
402 269
403 269
404 269
405 269
406 269
407 269
408 269
409 269
410 269
411 269
412 269
413 269
414 269
415 269
416 269
417 269
418 269
419 269
420 269
421 269
422 269
423 269
424 269
425 269
426 269
427 269
428 269
429 269
430 269
431 269
432 269
433 269
434 269
435 269
436 269
437 269
438 269
439 269
440 269
441 269
442 269
443 269
444 269
445 269
446 269
447 269
448 269
449 269
450 269
451 269
452 269
453 269
346 270
347 270
348 270
349 270
350 270
351 270
352 270
353 270
354 270
355 270
356 270
357 270
358 270
359 270
360 270
361 270
362 270
363 270
364 270
365 270
366 270
367 270
368 270
369 270
370 270
371 270
372 270
373 270
374 270
375 270
376 270
377 270
378 270
379 270
380 270
381 270
382 270
383 270
384 270
385 270
386 270
387 270
388 270
389 270
390 270
391 270
392 270
393 270
394 270
395 270
396 270
397 270
398 270
399 270
400 270
401 270
402 270
403 270
404 270
405 270
406 270
407 270
408 270
409 270
410 270
411 270
412 270
413 270
414 270
415 270
416 270
417 270
418 270
419 270
420 270
421 270
422 270
423 270
424 270
425 270
426 270
427 270
428 270
429 270
430 270
431 270
432 270
433 270
434 270
435 270
436 270
437 270
438 270
439 270
440 270
441 270
442 270
443 270
444 270
445 270
446 270
447 270
448 270
449 270
450 270
451 270
452 270
453 270
346 271
347 271
348 271
349 271
350 271
351 271
352 271
353 271
354 271
355 271
356 271
357 271
358 271
359 271
360 271
361 271
362 271
363 271
364 271
365 271
366 271
367 271
368 271
369 271
370 271
371 271
372 271
373 271
374 271
375 271
376 271
377 271
378 271
379 271
380 271
381 271
382 271
383 271
384 271
385 271
386 271
387 271
388 271
389 271
390 271
391 271
392 271
393 271
394 271
395 271
396 271
397 271
398 271
399 271
400 271
401 271
402 271
403 271
404 271
405 271
406 271
407 271
408 271
409 271
410 271
411 271
412 271
413 271
414 271
415 271
416 271
417 271
418 271
419 271
420 271
421 271
422 271
423 271
424 271
425 271
426 271
427 271
428 271
429 271
430 271
431 271
432 271
433 271
434 271
435 271
436 271
437 271
438 271
439 271
440 271
441 271
442 271
443 271
444 271
445 271
446 271
447 271
448 271
449 271
450 271
451 271
452 271
453 271
346 272
347 272
348 272
349 272
350 272
351 272
352 272
353 272
354 272
355 272
356 272
357 272
358 272
359 272
360 272
361 272
362 272
363 272
364 272
365 272
366 272
367 272
368 272
369 272
370 272
371 272
372 272
373 272
374 272
375 272
376 272
377 272
378 272
379 272
380 272
381 272
382 272
383 272
384 272
385 272
386 272
387 272
388 272
389 272
390 272
391 272
392 272
393 272
394 272
395 272
396 272
397 272
398 272
399 272
400 272
401 272
402 272
403 272
404 272
405 272
406 272
407 272
408 272
409 272
410 272
411 272
412 272
413 272
414 272
415 272
416 272
417 272
418 272
419 272
420 272
421 272
422 272
423 272
424 272
425 272
426 272
427 272
428 272
429 272
430 272
431 272
432 272
433 272
434 272
435 272
436 272
437 272
438 272
439 272
440 272
441 272
442 272
443 272
444 272
445 272
446 272
447 272
448 272
449 272
450 272
451 272
452 272
453 272
346 273
347 273
348 273
349 273
350 273
351 273
352 273
353 273
354 273
355 273
356 273
357 273
358 273
359 273
360 273
361 273
362 273
363 273
364 273
365 273
366 273
367 273
368 273
369 273
370 273
371 273
372 273
373 273
374 273
375 273
376 273
377 273
378 273
379 273
380 273
381 273
382 273
383 273
384 273
385 273
386 273
387 273
388 273
389 273
390 273
391 273
392 273
393 273
394 273
395 273
396 273
397 273
398 273
399 273
400 273
401 273
402 273
403 273
404 273
405 273
406 273
407 273
408 273
409 273
410 273
411 273
412 273
413 273
414 273
415 273
416 273
417 273
418 273
419 273
420 273
421 273
422 273
423 273
424 273
425 273
426 273
427 273
428 273
429 273
430 273
431 273
432 273
433 273
434 273
435 273
436 273
437 273
438 273
439 273
440 273
441 273
442 273
443 273
444 273
445 273
446 273
447 273
448 273
449 273
450 273
451 273
452 273
453 273
346 274
347 274
348 274
349 274
350 274
351 274
352 274
353 274
354 274
355 274
356 274
357 274
358 274
359 274
360 274
361 274
362 274
363 274
364 274
365 274
366 274
367 274
368 274
369 274
370 274
371 274
372 274
373 274
374 274
375 274
376 274
377 274
378 274
379 274
380 274
381 274
382 274
383 274
384 274
385 274
386 274
387 274
388 274
389 274
390 274
391 274
392 274
393 274
394 274
395 274
396 274
397 274
398 274
399 274
400 274
401 274
402 274
403 274
404 274
405 274
406 274
407 274
408 274
409 274
410 274
411 274
412 274
413 274
414 274
415 274
416 274
417 274
418 274
419 274
420 274
421 274
422 274
423 274
424 274
425 274
426 274
427 274
428 274
429 274
430 274
431 274
432 274
433 274
434 274
435 274
436 274
437 274
438 274
439 274
440 274
441 274
442 274
443 274
444 274
445 274
446 274
447 274
448 274
449 274
450 274
451 274
452 274
453 274
346 275
347 275
348 275
349 275
350 275
351 275
352 275
353 275
354 275
355 275
356 275
357 275
358 275
359 275
360 275
361 275
362 275
363 275
364 275
365 275
366 275
367 275
368 275
369 275
370 275
371 275
372 275
373 275
374 275
375 275
376 275
377 275
378 275
379 275
380 275
381 275
382 275
383 275
384 275
385 275
386 275
387 275
388 275
389 275
390 275
391 275
392 275
393 275
394 275
395 275
396 275
397 275
398 275
399 275
400 275
401 275
402 275
403 275
404 275
405 275
406 275
407 275
408 275
409 275
410 275
411 275
412 275
413 275
414 275
415 275
416 275
417 275
418 275
419 275
420 275
421 275
422 275
423 275
424 275
425 275
426 275
427 275
428 275
429 275
430 275
431 275
432 275
433 275
434 275
435 275
436 275
437 275
438 275
439 275
440 275
441 275
442 275
443 275
444 275
445 275
446 275
447 275
448 275
449 275
450 275
451 275
452 275
453 275
346 276
347 276
348 276
349 276
350 276
351 276
352 276
353 276
354 276
355 276
356 276
357 276
358 276
359 276
360 276
361 276
362 276
363 276
364 276
365 276
366 276
367 276
368 276
369 276
370 276
371 276
372 276
373 276
374 276
375 276
376 276
377 276
378 276
379 276
380 276
381 276
382 276
383 276
384 276
385 276
386 276
387 276
388 276
389 276
390 276
391 276
392 276
393 276
394 276
395 276
396 276
397 276
398 276
399 276
400 276
401 276
402 276
403 276
404 276
405 276
406 276
407 276
408 276
409 276
410 276
411 276
412 276
413 276
414 276
415 276
416 276
417 276
418 276
419 276
420 276
421 276
422 276
423 276
424 276
425 276
426 276
427 276
428 276
429 276
430 276
431 276
432 276
433 276
434 276
435 276
436 276
437 276
438 276
439 276
440 276
441 276
442 276
443 276
444 276
445 276
446 276
447 276
448 276
449 276
450 276
451 276
452 276
453 276
346 277
347 277
348 277
349 277
350 277
351 277
352 277
353 277
354 277
355 277
356 277
357 277
358 277
359 277
360 277
361 277
362 277
363 277
364 277
365 277
366 277
367 277
368 277
369 277
370 277
371 277
372 277
373 277
374 277
375 277
376 277
377 277
378 277
379 277
380 277
381 277
382 277
383 277
384 277
385 277
386 277
387 277
388 277
389 277
390 277
391 277
392 277
393 277
394 277
395 277
396 277
397 277
398 277
399 277
400 277
401 277
402 277
403 277
404 277
405 277
406 277
407 277
408 277
409 277
410 277
411 277
412 277
413 277
414 277
415 277
416 277
417 277
418 277
419 277
420 277
421 277
422 277
423 277
424 277
425 277
426 277
427 277
428 277
429 277
430 277
431 277
432 277
433 277
434 277
435 277
436 277
437 277
438 277
439 277
440 277
441 277
442 277
443 277
444 277
445 277
446 277
447 277
448 277
449 277
450 277
451 277
452 277
453 277
346 278
347 278
348 278
349 278
350 278
351 278
352 278
353 278
354 278
355 278
356 278
357 278
358 278
359 278
360 278
361 278
362 278
363 278
364 278
365 278
366 278
367 278
368 278
369 278
370 278
371 278
372 278
373 278
374 278
375 278
376 278
377 278
378 278
379 278
380 278
381 278
382 278
383 278
384 278
385 278
386 278
387 278
388 278
389 278
390 278
391 278
392 278
393 278
394 278
395 278
396 278
397 278
398 278
399 278
400 278
401 278
402 278
403 278
404 278
405 278
406 278
407 278
408 278
409 278
410 278
411 278
412 278
413 278
414 278
415 278
416 278
417 278
418 278
419 278
420 278
421 278
422 278
423 278
424 278
425 278
426 278
427 278
428 278
429 278
430 278
431 278
432 278
433 278
434 278
435 278
436 278
437 278
438 278
439 278
440 278
441 278
442 278
443 278
444 278
445 278
446 278
447 278
448 278
449 278
450 278
451 278
452 278
453 278
346 279
347 279
348 279
349 279
350 279
351 279
352 279
353 279
354 279
355 279
356 279
357 279
358 279
359 279
360 279
361 279
362 279
363 279
364 279
365 279
366 279
367 279
368 279
369 279
370 279
371 279
372 279
373 279
374 279
375 279
376 279
377 279
378 279
379 279
380 279
381 279
382 279
383 279
384 279
385 279
386 279
387 279
388 279
389 279
390 279
391 279
392 279
393 279
394 279
395 279
396 279
397 279
398 279
399 279
400 279
401 279
402 279
403 279
404 279
405 279
406 279
407 279
408 279
409 279
410 279
411 279
412 279
413 279
414 279
415 279
416 279
417 279
418 279
419 279
420 279
421 279
422 279
423 279
424 279
425 279
426 279
427 279
428 279
429 279
430 279
431 279
432 279
433 279
434 279
435 279
436 279
437 279
438 279
439 279
440 279
441 279
442 279
443 279
444 279
445 279
446 279
447 279
448 279
449 279
450 279
451 279
452 279
453 279
346 280
347 280
348 280
349 280
350 280
351 280
352 280
353 280
354 280
355 280
356 280
357 280
358 280
359 280
360 280
361 280
362 280
363 280
364 280
365 280
366 280
367 280
368 280
369 280
370 280
371 280
372 280
373 280
374 280
375 280
376 280
377 280
378 280
379 280
380 280
381 280
382 280
383 280
384 280
385 280
386 280
387 280
388 280
389 280
390 280
391 280
392 280
393 280
394 280
395 280
396 280
397 280
398 280
399 280
400 280
401 280
402 280
403 280
404 280
405 280
406 280
407 280
408 280
409 280
410 280
411 280
412 280
413 280
414 280
415 280
416 280
417 280
418 280
419 280
420 280
421 280
422 280
423 280
424 280
425 280
426 280
427 280
428 280
429 280
430 280
431 280
432 280
433 280
434 280
435 280
436 280
437 280
438 280
439 280
440 280
441 280
442 280
443 280
444 280
445 280
446 280
447 280
448 280
449 280
450 280
451 280
452 280
453 280
346 281
347 281
348 281
349 281
350 281
351 281
352 281
353 281
354 281
355 281
356 281
357 281
358 281
359 281
360 281
361 281
362 281
363 281
364 281
365 281
366 281
367 281
368 281
369 281
370 281
371 281
372 281
373 281
374 281
375 281
376 281
377 281
378 281
379 281
380 281
381 281
382 281
383 281
384 281
385 281
386 281
387 281
388 281
389 281
390 281
391 281
392 281
393 281
394 281
395 281
396 281
397 281
398 281
399 281
400 281
401 281
402 281
403 281
404 281
405 281
406 281
407 281
408 281
409 281
410 281
411 281
412 281
413 281
414 281
415 281
416 281
417 281
418 281
419 281
420 281
421 281
422 281
423 281
424 281
425 281
426 281
427 281
428 281
429 281
430 281
431 281
432 281
433 281
434 281
435 281
436 281
437 281
438 281
439 281
440 281
441 281
442 281
443 281
444 281
445 281
446 281
447 281
448 281
449 281
450 281
451 281
452 281
453 281
346 282
347 282
348 282
349 282
350 282
351 282
352 282
353 282
354 282
355 282
356 282
357 282
358 282
359 282
360 282
361 282
362 282
363 282
364 282
365 282
366 282
367 282
368 282
369 282
370 282
371 282
372 282
373 282
374 282
375 282
376 282
377 282
378 282
379 282
380 282
381 282
382 282
383 282
384 282
385 282
386 282
387 282
388 282
389 282
390 282
391 282
392 282
393 282
394 282
395 282
396 282
397 282
398 282
399 282
400 282
401 282
402 282
403 282
404 282
405 282
406 282
407 282
408 282
409 282
410 282
411 282
412 282
413 282
414 282
415 282
416 282
417 282
418 282
419 282
420 282
421 282
422 282
423 282
424 282
425 282
426 282
427 282
428 282
429 282
430 282
431 282
432 282
433 282
434 282
435 282
436 282
437 282
438 282
439 282
440 282
441 282
442 282
443 282
444 282
445 282
446 282
447 282
448 282
449 282
450 282
451 282
452 282
453 282
346 283
347 283
348 283
349 283
350 283
351 283
352 283
353 283
354 283
355 283
356 283
357 283
358 283
359 283
360 283
361 283
362 283
363 283
364 283
365 283
366 283
367 283
368 283
369 283
370 283
371 283
372 283
373 283
374 283
375 283
376 283
377 283
378 283
379 283
380 283
381 283
382 283
383 283
384 283
385 283
386 283
387 283
388 283
389 283
390 283
391 283
392 283
393 283
394 283
395 283
396 283
397 283
398 283
399 283
400 283
401 283
402 283
403 283
404 283
405 283
406 283
407 283
408 283
409 283
410 283
411 283
412 283
413 283
414 283
415 283
416 283
417 283
418 283
419 283
420 283
421 283
422 283
423 283
424 283
425 283
426 283
427 283
428 283
429 283
430 283
431 283
432 283
433 283
434 283
435 283
436 283
437 283
438 283
439 283
440 283
441 283
442 283
443 283
444 283
445 283
446 283
447 283
448 283
449 283
450 283
451 283
452 283
453 283
346 284
347 284
348 284
349 284
350 284
351 284
352 284
353 284
354 284
355 284
356 284
357 284
358 284
359 284
360 284
361 284
362 284
363 284
364 284
365 284
366 284
367 284
368 284
369 284
370 284
371 284
372 284
373 284
374 284
375 284
376 284
377 284
378 284
379 284
380 284
381 284
382 284
383 284
384 284
385 284
386 284
387 284
388 284
389 284
390 284
391 284
392 284
393 284
394 284
395 284
396 284
397 284
398 284
399 284
400 284
401 284
402 284
403 284
404 284
405 284
406 284
407 284
408 284
409 284
410 284
411 284
412 284
413 284
414 284
415 284
416 284
417 284
418 284
419 284
420 284
421 284
422 284
423 284
424 284
425 284
426 284
427 284
428 284
429 284
430 284
431 284
432 284
433 284
434 284
435 284
436 284
437 284
438 284
439 284
440 284
441 284
442 284
443 284
444 284
445 284
446 284
447 284
448 284
449 284
450 284
451 284
452 284
453 284
346 285
347 285
348 285
349 285
350 285
351 285
352 285
353 285
354 285
355 285
356 285
357 285
358 285
359 285
360 285
361 285
362 285
363 285
364 285
365 285
366 285
367 285
368 285
369 285
370 285
371 285
372 285
373 285
374 285
375 285
376 285
377 285
378 285
379 285
380 285
381 285
382 285
383 285
384 285
385 285
386 285
387 285
388 285
389 285
390 285
391 285
392 285
393 285
394 285
395 285
396 285
397 285
398 285
399 285
400 285
401 285
402 285
403 285
404 285
405 285
406 285
407 285
408 285
409 285
410 285
411 285
412 285
413 285
414 285
415 285
416 285
417 285
418 285
419 285
420 285
421 285
422 285
423 285
424 285
425 285
426 285
427 285
428 285
429 285
430 285
431 285
432 285
433 285
434 285
435 285
436 285
437 285
438 285
439 285
440 285
441 285
442 285
443 285
444 285
445 285
446 285
447 285
448 285
449 285
450 285
451 285
452 285
453 285
346 286
347 286
348 286
349 286
350 286
351 286
352 286
353 286
354 286
355 286
356 286
357 286
358 286
359 286
360 286
361 286
362 286
363 286
364 286
365 286
366 286
367 286
368 286
369 286
370 286
371 286
372 286
373 286
374 286
375 286
376 286
377 286
378 286
379 286
380 286
381 286
382 286
383 286
384 286
385 286
386 286
387 286
388 286
389 286
390 286
391 286
392 286
393 286
394 286
395 286
396 286
397 286
398 286
399 286
400 286
401 286
402 286
403 286
404 286
405 286
406 286
407 286
408 286
409 286
410 286
411 286
412 286
413 286
414 286
415 286
416 286
417 286
418 286
419 286
420 286
421 286
422 286
423 286
424 286
425 286
426 286
427 286
428 286
429 286
430 286
431 286
432 286
433 286
434 286
435 286
436 286
437 286
438 286
439 286
440 286
441 286
442 286
443 286
444 286
445 286
446 286
447 286
448 286
449 286
450 286
451 286
452 286
453 286
346 287
347 287
348 287
349 287
350 287
351 287
352 287
353 287
354 287
355 287
356 287
357 287
358 287
359 287
360 287
361 287
362 287
363 287
364 287
365 287
366 287
367 287
368 287
369 287
370 287
371 287
372 287
373 287
374 287
375 287
376 287
377 287
378 287
379 287
380 287
381 287
382 287
383 287
384 287
385 287
386 287
387 287
388 287
389 287
390 287
391 287
392 287
393 287
394 287
395 287
396 287
397 287
398 287
399 287
400 287
401 287
402 287
403 287
404 287
405 287
406 287
407 287
408 287
409 287
410 287
411 287
412 287
413 287
414 287
415 287
416 287
417 287
418 287
419 287
420 287
421 287
422 287
423 287
424 287
425 287
426 287
427 287
428 287
429 287
430 287
431 287
432 287
433 287
434 287
435 287
436 287
437 287
438 287
439 287
440 287
441 287
442 287
443 287
444 287
445 287
446 287
447 287
448 287
449 287
450 287
451 287
452 287
453 287
346 288
347 288
348 288
349 288
350 288
351 288
352 288
353 288
354 288
355 288
356 288
357 288
358 288
359 288
360 288
361 288
362 288
363 288
364 288
365 288
366 288
367 288
368 288
369 288
370 288
371 288
372 288
373 288
374 288
375 288
376 288
377 288
378 288
379 288
380 288
381 288
382 288
383 288
384 288
385 288
386 288
387 288
388 288
389 288
390 288
391 288
392 288
393 288
394 288
395 288
396 288
397 288
398 288
399 288
400 288
401 288
402 288
403 288
404 288
405 288
406 288
407 288
408 288
409 288
410 288
411 288
412 288
413 288
414 288
415 288
416 288
417 288
418 288
419 288
420 288
421 288
422 288
423 288
424 288
425 288
426 288
427 288
428 288
429 288
430 288
431 288
432 288
433 288
434 288
435 288
436 288
437 288
438 288
439 288
440 288
441 288
442 288
443 288
444 288
445 288
446 288
447 288
448 288
449 288
450 288
451 288
452 288
453 288
346 289
347 289
348 289
349 289
350 289
351 289
352 289
353 289
354 289
355 289
356 289
357 289
358 289
359 289
360 289
361 289
362 289
363 289
364 289
365 289
366 289
367 289
368 289
369 289
370 289
371 289
372 289
373 289
374 289
375 289
376 289
377 289
378 289
379 289
380 289
381 289
382 289
383 289
384 289
385 289
386 289
387 289
388 289
389 289
390 289
391 289
392 289
393 289
394 289
395 289
396 289
397 289
398 289
399 289
400 289
401 289
402 289
403 289
404 289
405 289
406 289
407 289
408 289
409 289
410 289
411 289
412 289
413 289
414 289
415 289
416 289
417 289
418 289
419 289
420 289
421 289
422 289
423 289
424 289
425 289
426 289
427 289
428 289
429 289
430 289
431 289
432 289
433 289
434 289
435 289
436 289
437 289
438 289
439 289
440 289
441 289
442 289
443 289
444 289
445 289
446 289
447 289
448 289
449 289
450 289
451 289
452 289
453 289
346 290
347 290
348 290
349 290
350 290
351 290
352 290
353 290
354 290
355 290
356 290
357 290
358 290
359 290
360 290
361 290
362 290
363 290
364 290
365 290
366 290
367 290
368 290
369 290
370 290
371 290
372 290
373 290
374 290
375 290
376 290
377 290
378 290
379 290
380 290
381 290
382 290
383 290
384 290
385 290
386 290
387 290
388 290
389 290
390 290
391 290
392 290
393 290
394 290
395 290
396 290
397 290
398 290
399 290
400 290
401 290
402 290
403 290
404 290
405 290
406 290
407 290
408 290
409 290
410 290
411 290
412 290
413 290
414 290
415 290
416 290
417 290
418 290
419 290
420 290
421 290
422 290
423 290
424 290
425 290
426 290
427 290
428 290
429 290
430 290
431 290
432 290
433 290
434 290
435 290
436 290
437 290
438 290
439 290
440 290
441 290
442 290
443 290
444 290
445 290
446 290
447 290
448 290
449 290
450 290
451 290
452 290
453 290
346 291
347 291
348 291
349 291
350 291
351 291
352 291
353 291
354 291
355 291
356 291
357 291
358 291
359 291
360 291
361 291
362 291
363 291
364 291
365 291
366 291
367 291
368 291
369 291
370 291
371 291
372 291
373 291
374 291
375 291
376 291
377 291
378 291
379 291
380 291
381 291
382 291
383 291
384 291
385 291
386 291
387 291
388 291
389 291
390 291
391 291
392 291
393 291
394 291
395 291
396 291
397 291
398 291
399 291
400 291
401 291
402 291
403 291
404 291
405 291
406 291
407 291
408 291
409 291
410 291
411 291
412 291
413 291
414 291
415 291
416 291
417 291
418 291
419 291
420 291
421 291
422 291
423 291
424 291
425 291
426 291
427 291
428 291
429 291
430 291
431 291
432 291
433 291
434 291
435 291
436 291
437 291
438 291
439 291
440 291
441 291
442 291
443 291
444 291
445 291
446 291
447 291
448 291
449 291
450 291
451 291
452 291
453 291
498 336
499 336
500 336
501 336
502 336
503 336
504 336
505 336
506 336
507 336
508 336
509 336
510 336
511 336
512 336
513 336
514 336
515 336
516 336
517 336
518 336
519 336
520 336
521 336
522 336
523 336
524 336
525 336
526 336
527 336
528 336
529 336
530 336
531 336
532 336
533 336
534 336
535 336
536 336
537 336
538 336
539 336
540 336
541 336
542 336
543 336
544 336
545 336
546 336
547 336
548 336
549 336
550 336
551 336
552 336
553 336
554 336
555 336
556 336
557 336
558 336
559 336
560 336
561 336
562 336
563 336
564 336
565 336
566 336
567 336
568 336
569 336
570 336
571 336
572 336
573 336
498 337
499 337
500 337
501 337
502 337
503 337
504 337
505 337
506 337
507 337
508 337
509 337
510 337
511 337
512 337
513 337
514 337
515 337
516 337
517 337
518 337
519 337
520 337
521 337
522 337
523 337
524 337
525 337
526 337
527 337
528 337
529 337
530 337
531 337
532 337
533 337
534 337
535 337
536 337
537 337
538 337
539 337
540 337
541 337
542 337
543 337
544 337
545 337
546 337
547 337
548 337
549 337
550 337
551 337
552 337
553 337
554 337
555 337
556 337
557 337
558 337
559 337
560 337
561 337
562 337
563 337
564 337
565 337
566 337
567 337
568 337
569 337
570 337
571 337
572 337
573 337
498 338
499 338
500 338
501 338
502 338
503 338
504 338
505 338
506 338
507 338
508 338
509 338
510 338
511 338
512 338
513 338
514 338
515 338
516 338
517 338
518 338
519 338
520 338
521 338
522 338
523 338
524 338
525 338
526 338
527 338
528 338
529 338
530 338
531 338
532 338
533 338
534 338
535 338
536 338
537 338
538 338
539 338
540 338
541 338
542 338
543 338
544 338
545 338
546 338
547 338
548 338
549 338
550 338
551 338
552 338
553 338
554 338
555 338
556 338
557 338
558 338
559 338
560 338
561 338
562 338
563 338
564 338
565 338
566 338
567 338
568 338
569 338
570 338
571 338
572 338
573 338
498 339
499 339
500 339
501 339
502 339
503 339
504 339
505 339
506 339
507 339
508 339
509 339
510 339
511 339
512 339
513 339
514 339
515 339
516 339
517 339
518 339
519 339
520 339
521 339
522 339
523 339
524 339
525 339
526 339
527 339
528 339
529 339
530 339
531 339
532 339
533 339
534 339
535 339
536 339
537 339
538 339
539 339
540 339
541 339
542 339
543 339
544 339
545 339
546 339
547 339
548 339
549 339
550 339
551 339
552 339
553 339
554 339
555 339
556 339
557 339
558 339
559 339
560 339
561 339
562 339
563 339
564 339
565 339
566 339
567 339
568 339
569 339
570 339
571 339
572 339
573 339
498 340
499 340
500 340
501 340
502 340
503 340
504 340
505 340
506 340
507 340
508 340
509 340
510 340
511 340
512 340
513 340
514 340
515 340
516 340
517 340
518 340
519 340
520 340
521 340
522 340
523 340
524 340
525 340
526 340
527 340
528 340
529 340
530 340
531 340
532 340
533 340
534 340
535 340
536 340
537 340
538 340
539 340
540 340
541 340
542 340
543 340
544 340
545 340
546 340
547 340
548 340
549 340
550 340
551 340
552 340
553 340
554 340
555 340
556 340
557 340
558 340
559 340
560 340
561 340
562 340
563 340
564 340
565 340
566 340
567 340
568 340
569 340
570 340
571 340
572 340
573 340
498 341
499 341
500 341
501 341
502 341
503 341
504 341
505 341
506 341
507 341
508 341
509 341
510 341
511 341
512 341
513 341
514 341
515 341
516 341
517 341
518 341
519 341
520 341
521 341
522 341
523 341
524 341
525 341
526 341
527 341
528 341
529 341
530 341
531 341
532 341
533 341
534 341
535 341
536 341
537 341
538 341
539 341
540 341
541 341
542 341
543 341
544 341
545 341
546 341
547 341
548 341
549 341
550 341
551 341
552 341
553 341
554 341
555 341
556 341
557 341
558 341
559 341
560 341
561 341
562 341
563 341
564 341
565 341
566 341
567 341
568 341
569 341
570 341
571 341
572 341
573 341
498 342
499 342
500 342
501 342
502 342
503 342
504 342
505 342
506 342
507 342
508 342
509 342
510 342
511 342
512 342
513 342
514 342
515 342
516 342
517 342
518 342
519 342
520 342
521 342
522 342
523 342
524 342
525 342
526 342
527 342
528 342
529 342
530 342
531 342
532 342
533 342
534 342
535 342
536 342
537 342
538 342
539 342
540 342
541 342
542 342
543 342
544 342
545 342
546 342
547 342
548 342
549 342
550 342
551 342
552 342
553 342
554 342
555 342
556 342
557 342
558 342
559 342
560 342
561 342
562 342
563 342
564 342
565 342
566 342
567 342
568 342
569 342
570 342
571 342
572 342
573 342
498 343
499 343
500 343
501 343
502 343
503 343
504 343
505 343
506 343
507 343
508 343
509 343
510 343
511 343
512 343
513 343
514 343
515 343
516 343
517 343
518 343
519 343
520 343
521 343
522 343
523 343
524 343
525 343
526 343
527 343
528 343
529 343
530 343
531 343
532 343
533 343
534 343
535 343
536 343
537 343
538 343
539 343
540 343
541 343
542 343
543 343
544 343
545 343
546 343
547 343
548 343
549 343
550 343
551 343
552 343
553 343
554 343
555 343
556 343
557 343
558 343
559 343
560 343
561 343
562 343
563 343
564 343
565 343
566 343
567 343
568 343
569 343
570 343
571 343
572 343
573 343
498 344
499 344
500 344
501 344
502 344
503 344
504 344
505 344
506 344
507 344
508 344
509 344
510 344
511 344
512 344
513 344
514 344
515 344
516 344
517 344
518 344
519 344
520 344
521 344
522 344
523 344
524 344
525 344
526 344
527 344
528 344
529 344
530 344
531 344
532 344
533 344
534 344
535 344
536 344
537 344
538 344
539 344
540 344
541 344
542 344
543 344
544 344
545 344
546 344
547 344
548 344
549 344
550 344
551 344
552 344
553 344
554 344
555 344
556 344
557 344
558 344
559 344
560 344
561 344
562 344
563 344
564 344
565 344
566 344
567 344
568 344
569 344
570 344
571 344
572 344
573 344
498 345
499 345
500 345
501 345
502 345
503 345
504 345
505 345
506 345
507 345
508 345
509 345
510 345
511 345
512 345
513 345
514 345
515 345
516 345
517 345
518 345
519 345
520 345
521 345
522 345
523 345
524 345
525 345
526 345
527 345
528 345
529 345
530 345
531 345
532 345
533 345
534 345
535 345
536 345
537 345
538 345
539 345
540 345
541 345
542 345
543 345
544 345
545 345
546 345
547 345
548 345
549 345
550 345
551 345
552 345
553 345
554 345
555 345
556 345
557 345
558 345
559 345
560 345
561 345
562 345
563 345
564 345
565 345
566 345
567 345
568 345
569 345
570 345
571 345
572 345
573 345
498 346
499 346
500 346
501 346
502 346
503 346
504 346
505 346
506 346
507 346
508 346
509 346
510 346
511 346
512 346
513 346
514 346
515 346
516 346
517 346
518 346
519 346
520 346
521 346
522 346
523 346
524 346
525 346
526 346
527 346
528 346
529 346
530 346
531 346
532 346
533 346
534 346
535 346
536 346
537 346
538 346
539 346
540 346
541 346
542 346
543 346
544 346
545 346
546 346
547 346
548 346
549 346
550 346
551 346
552 346
553 346
554 346
555 346
556 346
557 346
558 346
559 346
560 346
561 346
562 346
563 346
564 346
565 346
566 346
567 346
568 346
569 346
570 346
571 346
572 346
573 346
498 347
499 347
500 347
501 347
502 347
503 347
504 347
505 347
506 347
507 347
508 347
509 347
510 347
511 347
512 347
513 347
514 347
515 347
516 347
517 347
518 347
519 347
520 347
521 347
522 347
523 347
524 347
525 347
526 347
527 347
528 347
529 347
530 347
531 347
532 347
533 347
534 347
535 347
536 347
537 347
538 347
539 347
540 347
541 347
542 347
543 347
544 347
545 347
546 347
547 347
548 347
549 347
550 347
551 347
552 347
553 347
554 347
555 347
556 347
557 347
558 347
559 347
560 347
561 347
562 347
563 347
564 347
565 347
566 347
567 347
568 347
569 347
570 347
571 347
572 347
573 347
498 348
499 348
500 348
501 348
502 348
503 348
504 348
505 348
506 348
507 348
508 348
509 348
510 348
511 348
512 348
513 348
514 348
515 348
516 348
517 348
518 348
519 348
520 348
521 348
522 348
523 348
524 348
525 348
526 348
527 348
528 348
529 348
530 348
531 348
532 348
533 348
534 348
535 348
536 348
537 348
538 348
539 348
540 348
541 348
542 348
543 348
544 348
545 348
546 348
547 348
548 348
549 348
550 348
551 348
552 348
553 348
554 348
555 348
556 348
557 348
558 348
559 348
560 348
561 348
562 348
563 348
564 348
565 348
566 348
567 348
568 348
569 348
570 348
571 348
572 348
573 348
498 349
499 349
500 349
501 349
502 349
503 349
504 349
505 349
506 349
507 349
508 349
509 349
510 349
511 349
512 349
513 349
514 349
515 349
516 349
517 349
518 349
519 349
520 349
521 349
522 349
523 349
524 349
525 349
526 349
527 349
528 349
529 349
530 349
531 349
532 349
533 349
534 349
535 349
536 349
537 349
538 349
539 349
540 349
541 349
542 349
543 349
544 349
545 349
546 349
547 349
548 349
549 349
550 349
551 349
552 349
553 349
554 349
555 349
556 349
557 349
558 349
559 349
560 349
561 349
562 349
563 349
564 349
565 349
566 349
567 349
568 349
569 349
570 349
571 349
572 349
573 349
498 350
499 350
500 350
501 350
502 350
503 350
504 350
505 350
506 350
507 350
508 350
509 350
510 350
511 350
512 350
513 350
514 350
515 350
516 350
517 350
518 350
519 350
520 350
521 350
522 350
523 350
524 350
525 350
526 350
527 350
528 350
529 350
530 350
531 350
532 350
533 350
534 350
535 350
536 350
537 350
538 350
539 350
540 350
541 350
542 350
543 350
544 350
545 350
546 350
547 350
548 350
549 350
550 350
551 350
552 350
553 350
554 350
555 350
556 350
557 350
558 350
559 350
560 350
561 350
562 350
563 350
564 350
565 350
566 350
567 350
568 350
569 350
570 350
571 350
572 350
573 350
498 351
499 351
500 351
501 351
502 351
503 351
504 351
505 351
506 351
507 351
508 351
509 351
510 351
511 351
512 351
513 351
514 351
515 351
516 351
517 351
518 351
519 351
520 351
521 351
522 351
523 351
524 351
525 351
526 351
527 351
528 351
529 351
530 351
531 351
532 351
533 351
534 351
535 351
536 351
537 351
538 351
539 351
540 351
541 351
542 351
543 351
544 351
545 351
546 351
547 351
548 351
549 351
550 351
551 351
552 351
553 351
554 351
555 351
556 351
557 351
558 351
559 351
560 351
561 351
562 351
563 351
564 351
565 351
566 351
567 351
568 351
569 351
570 351
571 351
572 351
573 351
498 352
499 352
500 352
501 352
502 352
503 352
504 352
505 352
506 352
507 352
508 352
509 352
510 352
511 352
512 352
513 352
514 352
515 352
516 352
517 352
518 352
519 352
520 352
521 352
522 352
523 352
524 352
525 352
526 352
527 352
528 352
529 352
530 352
531 352
532 352
533 352
534 352
535 352
536 352
537 352
538 352
539 352
540 352
541 352
542 352
543 352
544 352
545 352
546 352
547 352
548 352
549 352
550 352
551 352
552 352
553 352
554 352
555 352
556 352
557 352
558 352
559 352
560 352
561 352
562 352
563 352
564 352
565 352
566 352
567 352
568 352
569 352
570 352
571 352
572 352
573 352
498 353
499 353
500 353
501 353
502 353
503 353
504 353
505 353
506 353
507 353
508 353
509 353
510 353
511 353
512 353
513 353
514 353
515 353
516 353
517 353
518 353
519 353
520 353
521 353
522 353
523 353
524 353
525 353
526 353
527 353
528 353
529 353
530 353
531 353
532 353
533 353
534 353
535 353
536 353
537 353
538 353
539 353
540 353
541 353
542 353
543 353
544 353
545 353
546 353
547 353
548 353
549 353
550 353
551 353
552 353
553 353
554 353
555 353
556 353
557 353
558 353
559 353
560 353
561 353
562 353
563 353
564 353
565 353
566 353
567 353
568 353
569 353
570 353
571 353
572 353
573 353
498 354
499 354
500 354
501 354
502 354
503 354
504 354
505 354
506 354
507 354
508 354
509 354
510 354
511 354
512 354
513 354
514 354
515 354
516 354
517 354
518 354
519 354
520 354
521 354
522 354
523 354
524 354
525 354
526 354
527 354
528 354
529 354
530 354
531 354
532 354
533 354
534 354
535 354
536 354
537 354
538 354
539 354
540 354
541 354
542 354
543 354
544 354
545 354
546 354
547 354
548 354
549 354
550 354
551 354
552 354
553 354
554 354
555 354
556 354
557 354
558 354
559 354
560 354
561 354
562 354
563 354
564 354
565 354
566 354
567 354
568 354
569 354
570 354
571 354
572 354
573 354
498 355
499 355
500 355
501 355
502 355
503 355
504 355
505 355
506 355
507 355
508 355
509 355
510 355
511 355
512 355
513 355
514 355
515 355
516 355
517 355
518 355
519 355
520 355
521 355
522 355
523 355
524 355
525 355
526 355
527 355
528 355
529 355
530 355
531 355
532 355
533 355
534 355
535 355
536 355
537 355
538 355
539 355
540 355
541 355
542 355
543 355
544 355
545 355
546 355
547 355
548 355
549 355
550 355
551 355
552 355
553 355
554 355
555 355
556 355
557 355
558 355
559 355
560 355
561 355
562 355
563 355
564 355
565 355
566 355
567 355
568 355
569 355
570 355
571 355
572 355
573 355
498 356
499 356
500 356
501 356
502 356
503 356
504 356
505 356
506 356
507 356
508 356
509 356
510 356
511 356
512 356
513 356
514 356
515 356
516 356
517 356
518 356
519 356
520 356
521 356
522 356
523 356
524 356
525 356
526 356
527 356
528 356
529 356
530 356
531 356
532 356
533 356
534 356
535 356
536 356
537 356
538 356
539 356
540 356
541 356
542 356
543 356
544 356
545 356
546 356
547 356
548 356
549 356
550 356
551 356
552 356
553 356
554 356
555 356
556 356
557 356
558 356
559 356
560 356
561 356
562 356
563 356
564 356
565 356
566 356
567 356
568 356
569 356
570 356
571 356
572 356
573 356
498 357
499 357
500 357
501 357
502 357
503 357
504 357
505 357
506 357
507 357
508 357
509 357
510 357
511 357
512 357
513 357
514 357
515 357
516 357
517 357
518 357
519 357
520 357
521 357
522 357
523 357
524 357
525 357
526 357
527 357
528 357
529 357
530 357
531 357
532 357
533 357
534 357
535 357
536 357
537 357
538 357
539 357
540 357
541 357
542 357
543 357
544 357
545 357
546 357
547 357
548 357
549 357
550 357
551 357
552 357
553 357
554 357
555 357
556 357
557 357
558 357
559 357
560 357
561 357
562 357
563 357
564 357
565 357
566 357
567 357
568 357
569 357
570 357
571 357
572 357
573 357
498 358
499 358
500 358
501 358
502 358
503 358
504 358
505 358
506 358
507 358
508 358
509 358
510 358
511 358
512 358
513 358
514 358
515 358
516 358
517 358
518 358
519 358
520 358
521 358
522 358
523 358
524 358
525 358
526 358
527 358
528 358
529 358
530 358
531 358
532 358
533 358
534 358
535 358
536 358
537 358
538 358
539 358
540 358
541 358
542 358
543 358
544 358
545 358
546 358
547 358
548 358
549 358
550 358
551 358
552 358
553 358
554 358
555 358
556 358
557 358
558 358
559 358
560 358
561 358
562 358
563 358
564 358
565 358
566 358
567 358
568 358
569 358
570 358
571 358
572 358
573 358
498 359
499 359
500 359
501 359
502 359
503 359
504 359
505 359
506 359
507 359
508 359
509 359
510 359
511 359
512 359
513 359
514 359
515 359
516 359
517 359
518 359
519 359
520 359
521 359
522 359
523 359
524 359
525 359
526 359
527 359
528 359
529 359
530 359
531 359
532 359
533 359
534 359
535 359
536 359
537 359
538 359
539 359
540 359
541 359
542 359
543 359
544 359
545 359
546 359
547 359
548 359
549 359
550 359
551 359
552 359
553 359
554 359
555 359
556 359
557 359
558 359
559 359
560 359
561 359
562 359
563 359
564 359
565 359
566 359
567 359
568 359
569 359
570 359
571 359
572 359
573 359
498 360
499 360
500 360
501 360
502 360
503 360
504 360
505 360
506 360
507 360
508 360
509 360
510 360
511 360
512 360
513 360
514 360
515 360
516 360
517 360
518 360
519 360
520 360
521 360
522 360
523 360
524 360
525 360
526 360
527 360
528 360
529 360
530 360
531 360
532 360
533 360
534 360
535 360
536 360
537 360
538 360
539 360
540 360
541 360
542 360
543 360
544 360
545 360
546 360
547 360
548 360
549 360
550 360
551 360
552 360
553 360
554 360
555 360
556 360
557 360
558 360
559 360
560 360
561 360
562 360
563 360
564 360
565 360
566 360
567 360
568 360
569 360
570 360
571 360
572 360
573 360
498 361
499 361
500 361
501 361
502 361
503 361
504 361
505 361
506 361
507 361
508 361
509 361
510 361
511 361
512 361
513 361
514 361
515 361
516 361
517 361
518 361
519 361
520 361
521 361
522 361
523 361
524 361
525 361
526 361
527 361
528 361
529 361
530 361
531 361
532 361
533 361
534 361
535 361
536 361
537 361
538 361
539 361
540 361
541 361
542 361
543 361
544 361
545 361
546 361
547 361
548 361
549 361
550 361
551 361
552 361
553 361
554 361
555 361
556 361
557 361
558 361
559 361
560 361
561 361
562 361
563 361
564 361
565 361
566 361
567 361
568 361
569 361
570 361
571 361
572 361
573 361
498 362
499 362
500 362
501 362
502 362
503 362
504 362
505 362
506 362
507 362
508 362
509 362
510 362
511 362
512 362
513 362
514 362
515 362
516 362
517 362
518 362
519 362
520 362
521 362
522 362
523 362
524 362
525 362
526 362
527 362
528 362
529 362
530 362
531 362
532 362
533 362
534 362
535 362
536 362
537 362
538 362
539 362
540 362
541 362
542 362
543 362
544 362
545 362
546 362
547 362
548 362
549 362
550 362
551 362
552 362
553 362
554 362
555 362
556 362
557 362
558 362
559 362
560 362
561 362
562 362
563 362
564 362
565 362
566 362
567 362
568 362
569 362
570 362
571 362
572 362
573 362
498 363
499 363
500 363
501 363
502 363
503 363
504 363
505 363
506 363
507 363
508 363
509 363
510 363
511 363
512 363
513 363
514 363
515 363
516 363
517 363
518 363
519 363
520 363
521 363
522 363
523 363
524 363
525 363
526 363
527 363
528 363
529 363
530 363
531 363
532 363
533 363
534 363
535 363
536 363
537 363
538 363
539 363
540 363
541 363
542 363
543 363
544 363
545 363
546 363
547 363
548 363
549 363
550 363
551 363
552 363
553 363
554 363
555 363
556 363
557 363
558 363
559 363
560 363
561 363
562 363
563 363
564 363
565 363
566 363
567 363
568 363
569 363
570 363
571 363
572 363
573 363
498 364
499 364
500 364
501 364
502 364
503 364
504 364
505 364
506 364
507 364
508 364
509 364
510 364
511 364
512 364
513 364
514 364
515 364
516 364
517 364
518 364
519 364
520 364
521 364
522 364
523 364
524 364
525 364
526 364
527 364
528 364
529 364
530 364
531 364
532 364
533 364
534 364
535 364
536 364
537 364
538 364
539 364
540 364
541 364
542 364
543 364
544 364
545 364
546 364
547 364
548 364
549 364
550 364
551 364
552 364
553 364
554 364
555 364
556 364
557 364
558 364
559 364
560 364
561 364
562 364
563 364
564 364
565 364
566 364
567 364
568 364
569 364
570 364
571 364
572 364
573 364
498 365
499 365
500 365
501 365
502 365
503 365
504 365
505 365
506 365
507 365
508 365
509 365
510 365
511 365
512 365
513 365
514 365
515 365
516 365
517 365
518 365
519 365
520 365
521 365
522 365
523 365
524 365
525 365
526 365
527 365
528 365
529 365
530 365
531 365
532 365
533 365
534 365
535 365
536 365
537 365
538 365
539 365
540 365
541 365
542 365
543 365
544 365
545 365
546 365
547 365
548 365
549 365
550 365
551 365
552 365
553 365
554 365
555 365
556 365
557 365
558 365
559 365
560 365
561 365
562 365
563 365
564 365
565 365
566 365
567 365
568 365
569 365
570 365
571 365
572 365
573 365
498 366
499 366
500 366
501 366
502 366
503 366
504 366
505 366
506 366
507 366
508 366
509 366
510 366
511 366
512 366
513 366
514 366
515 366
516 366
517 366
518 366
519 366
520 366
521 366
522 366
523 366
524 366
525 366
526 366
527 366
528 366
529 366
530 366
531 366
532 366
533 366
534 366
535 366
536 366
537 366
538 366
539 366
540 366
541 366
542 366
543 366
544 366
545 366
546 366
547 366
548 366
549 366
550 366
551 366
552 366
553 366
554 366
555 366
556 366
557 366
558 366
559 366
560 366
561 366
562 366
563 366
564 366
565 366
566 366
567 366
568 366
569 366
570 366
571 366
572 366
573 366
498 367
499 367
500 367
501 367
502 367
503 367
504 367
505 367
506 367
507 367
508 367
509 367
510 367
511 367
512 367
513 367
514 367
515 367
516 367
517 367
518 367
519 367
520 367
521 367
522 367
523 367
524 367
525 367
526 367
527 367
528 367
529 367
530 367
531 367
532 367
533 367
534 367
535 367
536 367
537 367
538 367
539 367
540 367
541 367
542 367
543 367
544 367
545 367
546 367
547 367
548 367
549 367
550 367
551 367
552 367
553 367
554 367
555 367
556 367
557 367
558 367
559 367
560 367
561 367
562 367
563 367
564 367
565 367
566 367
567 367
568 367
569 367
570 367
571 367
572 367
573 367
498 368
499 368
500 368
501 368
502 368
503 368
504 368
505 368
506 368
507 368
508 368
509 368
510 368
511 368
512 368
513 368
514 368
515 368
516 368
517 368
518 368
519 368
520 368
521 368
522 368
523 368
524 368
525 368
526 368
527 368
528 368
529 368
530 368
531 368
532 368
533 368
534 368
535 368
536 368
537 368
538 368
539 368
540 368
541 368
542 368
543 368
544 368
545 368
546 368
547 368
548 368
549 368
550 368
551 368
552 368
553 368
554 368
555 368
556 368
557 368
558 368
559 368
560 368
561 368
562 368
563 368
564 368
565 368
566 368
567 368
568 368
569 368
570 368
571 368
572 368
573 368
498 369
499 369
500 369
501 369
502 369
503 369
504 369
505 369
506 369
507 369
508 369
509 369
510 369
511 369
512 369
513 369
514 369
515 369
516 369
517 369
518 369
519 369
520 369
521 369
522 369
523 369
524 369
525 369
526 369
527 369
528 369
529 369
530 369
531 369
532 369
533 369
534 369
535 369
536 369
537 369
538 369
539 369
540 369
541 369
542 369
543 369
544 369
545 369
546 369
547 369
548 369
549 369
550 369
551 369
552 369
553 369
554 369
555 369
556 369
557 369
558 369
559 369
560 369
561 369
562 369
563 369
564 369
565 369
566 369
567 369
568 369
569 369
570 369
571 369
572 369
573 369
498 370
499 370
500 370
501 370
502 370
503 370
504 370
505 370
506 370
507 370
508 370
509 370
510 370
511 370
512 370
513 370
514 370
515 370
516 370
517 370
518 370
519 370
520 370
521 370
522 370
523 370
524 370
525 370
526 370
527 370
528 370
529 370
530 370
531 370
532 370
533 370
534 370
535 370
536 370
537 370
538 370
539 370
540 370
541 370
542 370
543 370
544 370
545 370
546 370
547 370
548 370
549 370
550 370
551 370
552 370
553 370
554 370
555 370
556 370
557 370
558 370
559 370
560 370
561 370
562 370
563 370
564 370
565 370
566 370
567 370
568 370
569 370
570 370
571 370
572 370
573 370
498 371
499 371
500 371
501 371
502 371
503 371
504 371
505 371
506 371
507 371
508 371
509 371
510 371
511 371
512 371
513 371
514 371
515 371
516 371
517 371
518 371
519 371
520 371
521 371
522 371
523 371
524 371
525 371
526 371
527 371
528 371
529 371
530 371
531 371
532 371
533 371
534 371
535 371
536 371
537 371
538 371
539 371
540 371
541 371
542 371
543 371
544 371
545 371
546 371
547 371
548 371
549 371
550 371
551 371
552 371
553 371
554 371
555 371
556 371
557 371
558 371
559 371
560 371
561 371
562 371
563 371
564 371
565 371
566 371
567 371
568 371
569 371
570 371
571 371
572 371
573 371
498 372
499 372
500 372
501 372
502 372
503 372
504 372
505 372
506 372
507 372
508 372
509 372
510 372
511 372
512 372
513 372
514 372
515 372
516 372
517 372
518 372
519 372
520 372
521 372
522 372
523 372
524 372
525 372
526 372
527 372
528 372
529 372
530 372
531 372
532 372
533 372
534 372
535 372
536 372
537 372
538 372
539 372
540 372
541 372
542 372
543 372
544 372
545 372
546 372
547 372
548 372
549 372
550 372
551 372
552 372
553 372
554 372
555 372
556 372
557 372
558 372
559 372
560 372
561 372
562 372
563 372
564 372
565 372
566 372
567 372
568 372
569 372
570 372
571 372
572 372
573 372
618 417
619 417
620 417
621 417
622 417
623 417
624 417
625 417
626 417
627 417
628 417
629 417
630 417
631 417
632 417
633 417
634 417
635 417
636 417
637 417
638 417
639 417
640 417
641 417
642 417
643 417
644 417
645 417
646 417
647 417
648 417
649 417
650 417
651 417
652 417
653 417
654 417
655 417
656 417
657 417
658 417
659 417
660 417
661 417
662 417
663 417
664 417
665 417
666 417
667 417
668 417
669 417
670 417
671 417
672 417
673 417
674 417
675 417
676 417
677 417
678 417
679 417
680 417
681 417
682 417
683 417
684 417
685 417
686 417
687 417
688 417
689 417
690 417
691 417
692 417
693 417
618 418
619 418
620 418
621 418
622 418
623 418
624 418
625 418
626 418
627 418
628 418
629 418
630 418
631 418
632 418
633 418
634 418
635 418
636 418
637 418
638 418
639 418
640 418
641 418
642 418
643 418
644 418
645 418
646 418
647 418
648 418
649 418
650 418
651 418
652 418
653 418
654 418
655 418
656 418
657 418
658 418
659 418
660 418
661 418
662 418
663 418
664 418
665 418
666 418
667 418
668 418
669 418
670 418
671 418
672 418
673 418
674 418
675 418
676 418
677 418
678 418
679 418
680 418
681 418
682 418
683 418
684 418
685 418
686 418
687 418
688 418
689 418
690 418
691 418
692 418
693 418
618 419
619 419
620 419
621 419
622 419
623 419
624 419
625 419
626 419
627 419
628 419
629 419
630 419
631 419
632 419
633 419
634 419
635 419
636 419
637 419
638 419
639 419
640 419
641 419
642 419
643 419
644 419
645 419
646 419
647 419
648 419
649 419
650 419
651 419
652 419
653 419
654 419
655 419
656 419
657 419
658 419
659 419
660 419
661 419
662 419
663 419
664 419
665 419
666 419
667 419
668 419
669 419
670 419
671 419
672 419
673 419
674 419
675 419
676 419
677 419
678 419
679 419
680 419
681 419
682 419
683 419
684 419
685 419
686 419
687 419
688 419
689 419
690 419
691 419
692 419
693 419
618 420
619 420
620 420
621 420
622 420
623 420
624 420
625 420
626 420
627 420
628 420
629 420
630 420
631 420
632 420
633 420
634 420
635 420
636 420
637 420
638 420
639 420
640 420
641 420
642 420
643 420
644 420
645 420
646 420
647 420
648 420
649 420
650 420
651 420
652 420
653 420
654 420
655 420
656 420
657 420
658 420
659 420
660 420
661 420
662 420
663 420
664 420
665 420
666 420
667 420
668 420
669 420
670 420
671 420
672 420
673 420
674 420
675 420
676 420
677 420
678 420
679 420
680 420
681 420
682 420
683 420
684 420
685 420
686 420
687 420
688 420
689 420
690 420
691 420
692 420
693 420
618 421
619 421
620 421
621 421
622 421
623 421
624 421
625 421
626 421
627 421
628 421
629 421
630 421
631 421
632 421
633 421
634 421
635 421
636 421
637 421
638 421
639 421
640 421
641 421
642 421
643 421
644 421
645 421
646 421
647 421
648 421
649 421
650 421
651 421
652 421
653 421
654 421
655 421
656 421
657 421
658 421
659 421
660 421
661 421
662 421
663 421
664 421
665 421
666 421
667 421
668 421
669 421
670 421
671 421
672 421
673 421
674 421
675 421
676 421
677 421
678 421
679 421
680 421
681 421
682 421
683 421
684 421
685 421
686 421
687 421
688 421
689 421
690 421
691 421
692 421
693 421
618 422
619 422
620 422
621 422
622 422
623 422
624 422
625 422
626 422
627 422
628 422
629 422
630 422
631 422
632 422
633 422
634 422
635 422
636 422
637 422
638 422
639 422
640 422
641 422
642 422
643 422
644 422
645 422
646 422
647 422
648 422
649 422
650 422
651 422
652 422
653 422
654 422
655 422
656 422
657 422
658 422
659 422
660 422
661 422
662 422
663 422
664 422
665 422
666 422
667 422
668 422
669 422
670 422
671 422
672 422
673 422
674 422
675 422
676 422
677 422
678 422
679 422
680 422
681 422
682 422
683 422
684 422
685 422
686 422
687 422
688 422
689 422
690 422
691 422
692 422
693 422
618 423
619 423
620 423
621 423
622 423
623 423
624 423
625 423
626 423
627 423
628 423
629 423
630 423
631 423
632 423
633 423
634 423
635 423
636 423
637 423
638 423
639 423
640 423
641 423
642 423
643 423
644 423
645 423
646 423
647 423
648 423
649 423
650 423
651 423
652 423
653 423
654 423
655 423
656 423
657 423
658 423
659 423
660 423
661 423
662 423
663 423
664 423
665 423
666 423
667 423
668 423
669 423
670 423
671 423
672 423
673 423
674 423
675 423
676 423
677 423
678 423
679 423
680 423
681 423
682 423
683 423
684 423
685 423
686 423
687 423
688 423
689 423
690 423
691 423
692 423
693 423
618 424
619 424
620 424
621 424
622 424
623 424
624 424
625 424
626 424
627 424
628 424
629 424
630 424
631 424
632 424
633 424
634 424
635 424
636 424
637 424
638 424
639 424
640 424
641 424
642 424
643 424
644 424
645 424
646 424
647 424
648 424
649 424
650 424
651 424
652 424
653 424
654 424
655 424
656 424
657 424
658 424
659 424
660 424
661 424
662 424
663 424
664 424
665 424
666 424
667 424
668 424
669 424
670 424
671 424
672 424
673 424
674 424
675 424
676 424
677 424
678 424
679 424
680 424
681 424
682 424
683 424
684 424
685 424
686 424
687 424
688 424
689 424
690 424
691 424
692 424
693 424
618 425
619 425
620 425
621 425
622 425
623 425
624 425
625 425
626 425
627 425
628 425
629 425
630 425
631 425
632 425
633 425
634 425
635 425
636 425
637 425
638 425
639 425
640 425
641 425
642 425
643 425
644 425
645 425
646 425
647 425
648 425
649 425
650 425
651 425
652 425
653 425
654 425
655 425
656 425
657 425
658 425
659 425
660 425
661 425
662 425
663 425
664 425
665 425
666 425
667 425
668 425
669 425
670 425
671 425
672 425
673 425
674 425
675 425
676 425
677 425
678 425
679 425
680 425
681 425
682 425
683 425
684 425
685 425
686 425
687 425
688 425
689 425
690 425
691 425
692 425
693 425
618 426
619 426
620 426
621 426
622 426
623 426
624 426
625 426
626 426
627 426
628 426
629 426
630 426
631 426
632 426
633 426
634 426
635 426
636 426
637 426
638 426
639 426
640 426
641 426
642 426
643 426
644 426
645 426
646 426
647 426
648 426
649 426
650 426
651 426
652 426
653 426
654 426
655 426
656 426
657 426
658 426
659 426
660 426
661 426
662 426
663 426
664 426
665 426
666 426
667 426
668 426
669 426
670 426
671 426
672 426
673 426
674 426
675 426
676 426
677 426
678 426
679 426
680 426
681 426
682 426
683 426
684 426
685 426
686 426
687 426
688 426
689 426
690 426
691 426
692 426
693 426
618 427
619 427
620 427
621 427
622 427
623 427
624 427
625 427
626 427
627 427
628 427
629 427
630 427
631 427
632 427
633 427
634 427
635 427
636 427
637 427
638 427
639 427
640 427
641 427
642 427
643 427
644 427
645 427
646 427
647 427
648 427
649 427
650 427
651 427
652 427
653 427
654 427
655 427
656 427
657 427
658 427
659 427
660 427
661 427
662 427
663 427
664 427
665 427
666 427
667 427
668 427
669 427
670 427
671 427
672 427
673 427
674 427
675 427
676 427
677 427
678 427
679 427
680 427
681 427
682 427
683 427
684 427
685 427
686 427
687 427
688 427
689 427
690 427
691 427
692 427
693 427
618 428
619 428
620 428
621 428
622 428
623 428
624 428
625 428
626 428
627 428
628 428
629 428
630 428
631 428
632 428
633 428
634 428
635 428
636 428
637 428
638 428
639 428
640 428
641 428
642 428
643 428
644 428
645 428
646 428
647 428
648 428
649 428
650 428
651 428
652 428
653 428
654 428
655 428
656 428
657 428
658 428
659 428
660 428
661 428
662 428
663 428
664 428
665 428
666 428
667 428
668 428
669 428
670 428
671 428
672 428
673 428
674 428
675 428
676 428
677 428
678 428
679 428
680 428
681 428
682 428
683 428
684 428
685 428
686 428
687 428
688 428
689 428
690 428
691 428
692 428
693 428
618 429
619 429
620 429
621 429
622 429
623 429
624 429
625 429
626 429
627 429
628 429
629 429
630 429
631 429
632 429
633 429
634 429
635 429
636 429
637 429
638 429
639 429
640 429
641 429
642 429
643 429
644 429
645 429
646 429
647 429
648 429
649 429
650 429
651 429
652 429
653 429
654 429
655 429
656 429
657 429
658 429
659 429
660 429
661 429
662 429
663 429
664 429
665 429
666 429
667 429
668 429
669 429
670 429
671 429
672 429
673 429
674 429
675 429
676 429
677 429
678 429
679 429
680 429
681 429
682 429
683 429
684 429
685 429
686 429
687 429
688 429
689 429
690 429
691 429
692 429
693 429
618 430
619 430
620 430
621 430
622 430
623 430
624 430
625 430
626 430
627 430
628 430
629 430
630 430
631 430
632 430
633 430
634 430
635 430
636 430
637 430
638 430
639 430
640 430
641 430
642 430
643 430
644 430
645 430
646 430
647 430
648 430
649 430
650 430
651 430
652 430
653 430
654 430
655 430
656 430
657 430
658 430
659 430
660 430
661 430
662 430
663 430
664 430
665 430
666 430
667 430
668 430
669 430
670 430
671 430
672 430
673 430
674 430
675 430
676 430
677 430
678 430
679 430
680 430
681 430
682 430
683 430
684 430
685 430
686 430
687 430
688 430
689 430
690 430
691 430
692 430
693 430
618 431
619 431
620 431
621 431
622 431
623 431
624 431
625 431
626 431
627 431
628 431
629 431
630 431
631 431
632 431
633 431
634 431
635 431
636 431
637 431
638 431
639 431
640 431
641 431
642 431
643 431
644 431
645 431
646 431
647 431
648 431
649 431
650 431
651 431
652 431
653 431
654 431
655 431
656 431
657 431
658 431
659 431
660 431
661 431
662 431
663 431
664 431
665 431
666 431
667 431
668 431
669 431
670 431
671 431
672 431
673 431
674 431
675 431
676 431
677 431
678 431
679 431
680 431
681 431
682 431
683 431
684 431
685 431
686 431
687 431
688 431
689 431
690 431
691 431
692 431
693 431
618 432
619 432
620 432
621 432
622 432
623 432
624 432
625 432
626 432
627 432
628 432
629 432
630 432
631 432
632 432
633 432
634 432
635 432
636 432
637 432
638 432
639 432
640 432
641 432
642 432
643 432
644 432
645 432
646 432
647 432
648 432
649 432
650 432
651 432
652 432
653 432
654 432
655 432
656 432
657 432
658 432
659 432
660 432
661 432
662 432
663 432
664 432
665 432
666 432
667 432
668 432
669 432
670 432
671 432
672 432
673 432
674 432
675 432
676 432
677 432
678 432
679 432
680 432
681 432
682 432
683 432
684 432
685 432
686 432
687 432
688 432
689 432
690 432
691 432
692 432
693 432
618 433
619 433
620 433
621 433
622 433
623 433
624 433
625 433
626 433
627 433
628 433
629 433
630 433
631 433
632 433
633 433
634 433
635 433
636 433
637 433
638 433
639 433
640 433
641 433
642 433
643 433
644 433
645 433
646 433
647 433
648 433
649 433
650 433
651 433
652 433
653 433
654 433
655 433
656 433
657 433
658 433
659 433
660 433
661 433
662 433
663 433
664 433
665 433
666 433
667 433
668 433
669 433
670 433
671 433
672 433
673 433
674 433
675 433
676 433
677 433
678 433
679 433
680 433
681 433
682 433
683 433
684 433
685 433
686 433
687 433
688 433
689 433
690 433
691 433
692 433
693 433
618 434
619 434
620 434
621 434
622 434
623 434
624 434
625 434
626 434
627 434
628 434
629 434
630 434
631 434
632 434
633 434
634 434
635 434
636 434
637 434
638 434
639 434
640 434
641 434
642 434
643 434
644 434
645 434
646 434
647 434
648 434
649 434
650 434
651 434
652 434
653 434
654 434
655 434
656 434
657 434
658 434
659 434
660 434
661 434
662 434
663 434
664 434
665 434
666 434
667 434
668 434
669 434
670 434
671 434
672 434
673 434
674 434
675 434
676 434
677 434
678 434
679 434
680 434
681 434
682 434
683 434
684 434
685 434
686 434
687 434
688 434
689 434
690 434
691 434
692 434
693 434
618 435
619 435
620 435
621 435
622 435
623 435
624 435
625 435
626 435
627 435
628 435
629 435
630 435
631 435
632 435
633 435
634 435
635 435
636 435
637 435
638 435
639 435
640 435
641 435
642 435
643 435
644 435
645 435
646 435
647 435
648 435
649 435
650 435
651 435
652 435
653 435
654 435
655 435
656 435
657 435
658 435
659 435
660 435
661 435
662 435
663 435
664 435
665 435
666 435
667 435
668 435
669 435
670 435
671 435
672 435
673 435
674 435
675 435
676 435
677 435
678 435
679 435
680 435
681 435
682 435
683 435
684 435
685 435
686 435
687 435
688 435
689 435
690 435
691 435
692 435
693 435
618 436
619 436
620 436
621 436
622 436
623 436
624 436
625 436
626 436
627 436
628 436
629 436
630 436
631 436
632 436
633 436
634 436
635 436
636 436
637 436
638 436
639 436
640 436
641 436
642 436
643 436
644 436
645 436
646 436
647 436
648 436
649 436
650 436
651 436
652 436
653 436
654 436
655 436
656 436
657 436
658 436
659 436
660 436
661 436
662 436
663 436
664 436
665 436
666 436
667 436
668 436
669 436
670 436
671 436
672 436
673 436
674 436
675 436
676 436
677 436
678 436
679 436
680 436
681 436
682 436
683 436
684 436
685 436
686 436
687 436
688 436
689 436
690 436
691 436
692 436
693 436
618 437
619 437
620 437
621 437
622 437
623 437
624 437
625 437
626 437
627 437
628 437
629 437
630 437
631 437
632 437
633 437
634 437
635 437
636 437
637 437
638 437
639 437
640 437
641 437
642 437
643 437
644 437
645 437
646 437
647 437
648 437
649 437
650 437
651 437
652 437
653 437
654 437
655 437
656 437
657 437
658 437
659 437
660 437
661 437
662 437
663 437
664 437
665 437
666 437
667 437
668 437
669 437
670 437
671 437
672 437
673 437
674 437
675 437
676 437
677 437
678 437
679 437
680 437
681 437
682 437
683 437
684 437
685 437
686 437
687 437
688 437
689 437
690 437
691 437
692 437
693 437
618 438
619 438
620 438
621 438
622 438
623 438
624 438
625 438
626 438
627 438
628 438
629 438
630 438
631 438
632 438
633 438
634 438
635 438
636 438
637 438
638 438
639 438
640 438
641 438
642 438
643 438
644 438
645 438
646 438
647 438
648 438
649 438
650 438
651 438
652 438
653 438
654 438
655 438
656 438
657 438
658 438
659 438
660 438
661 438
662 438
663 438
664 438
665 438
666 438
667 438
668 438
669 438
670 438
671 438
672 438
673 438
674 438
675 438
676 438
677 438
678 438
679 438
680 438
681 438
682 438
683 438
684 438
685 438
686 438
687 438
688 438
689 438
690 438
691 438
692 438
693 438
618 439
619 439
620 439
621 439
622 439
623 439
624 439
625 439
626 439
627 439
628 439
629 439
630 439
631 439
632 439
633 439
634 439
635 439
636 439
637 439
638 439
639 439
640 439
641 439
642 439
643 439
644 439
645 439
646 439
647 439
648 439
649 439
650 439
651 439
652 439
653 439
654 439
655 439
656 439
657 439
658 439
659 439
660 439
661 439
662 439
663 439
664 439
665 439
666 439
667 439
668 439
669 439
670 439
671 439
672 439
673 439
674 439
675 439
676 439
677 439
678 439
679 439
680 439
681 439
682 439
683 439
684 439
685 439
686 439
687 439
688 439
689 439
690 439
691 439
692 439
693 439
618 440
619 440
620 440
621 440
622 440
623 440
624 440
625 440
626 440
627 440
628 440
629 440
630 440
631 440
632 440
633 440
634 440
635 440
636 440
637 440
638 440
639 440
640 440
641 440
642 440
643 440
644 440
645 440
646 440
647 440
648 440
649 440
650 440
651 440
652 440
653 440
654 440
655 440
656 440
657 440
658 440
659 440
660 440
661 440
662 440
663 440
664 440
665 440
666 440
667 440
668 440
669 440
670 440
671 440
672 440
673 440
674 440
675 440
676 440
677 440
678 440
679 440
680 440
681 440
682 440
683 440
684 440
685 440
686 440
687 440
688 440
689 440
690 440
691 440
692 440
693 440
618 441
619 441
620 441
621 441
622 441
623 441
624 441
625 441
626 441
627 441
628 441
629 441
630 441
631 441
632 441
633 441
634 441
635 441
636 441
637 441
638 441
639 441
640 441
641 441
642 441
643 441
644 441
645 441
646 441
647 441
648 441
649 441
650 441
651 441
652 441
653 441
654 441
655 441
656 441
657 441
658 441
659 441
660 441
661 441
662 441
663 441
664 441
665 441
666 441
667 441
668 441
669 441
670 441
671 441
672 441
673 441
674 441
675 441
676 441
677 441
678 441
679 441
680 441
681 441
682 441
683 441
684 441
685 441
686 441
687 441
688 441
689 441
690 441
691 441
692 441
693 441
618 442
619 442
620 442
621 442
622 442
623 442
624 442
625 442
626 442
627 442
628 442
629 442
630 442
631 442
632 442
633 442
634 442
635 442
636 442
637 442
638 442
639 442
640 442
641 442
642 442
643 442
644 442
645 442
646 442
647 442
648 442
649 442
650 442
651 442
652 442
653 442
654 442
655 442
656 442
657 442
658 442
659 442
660 442
661 442
662 442
663 442
664 442
665 442
666 442
667 442
668 442
669 442
670 442
671 442
672 442
673 442
674 442
675 442
676 442
677 442
678 442
679 442
680 442
681 442
682 442
683 442
684 442
685 442
686 442
687 442
688 442
689 442
690 442
691 442
692 442
693 442
618 443
619 443
620 443
621 443
622 443
623 443
624 443
625 443
626 443
627 443
628 443
629 443
630 443
631 443
632 443
633 443
634 443
635 443
636 443
637 443
638 443
639 443
640 443
641 443
642 443
643 443
644 443
645 443
646 443
647 443
648 443
649 443
650 443
651 443
652 443
653 443
654 443
655 443
656 443
657 443
658 443
659 443
660 443
661 443
662 443
663 443
664 443
665 443
666 443
667 443
668 443
669 443
670 443
671 443
672 443
673 443
674 443
675 443
676 443
677 443
678 443
679 443
680 443
681 443
682 443
683 443
684 443
685 443
686 443
687 443
688 443
689 443
690 443
691 443
692 443
693 443
618 444
619 444
620 444
621 444
622 444
623 444
624 444
625 444
626 444
627 444
628 444
629 444
630 444
631 444
632 444
633 444
634 444
635 444
636 444
637 444
638 444
639 444
640 444
641 444
642 444
643 444
644 444
645 444
646 444
647 444
648 444
649 444
650 444
651 444
652 444
653 444
654 444
655 444
656 444
657 444
658 444
659 444
660 444
661 444
662 444
663 444
664 444
665 444
666 444
667 444
668 444
669 444
670 444
671 444
672 444
673 444
674 444
675 444
676 444
677 444
678 444
679 444
680 444
681 444
682 444
683 444
684 444
685 444
686 444
687 444
688 444
689 444
690 444
691 444
692 444
693 444
618 445
619 445
620 445
621 445
622 445
623 445
624 445
625 445
626 445
627 445
628 445
629 445
630 445
631 445
632 445
633 445
634 445
635 445
636 445
637 445
638 445
639 445
640 445
641 445
642 445
643 445
644 445
645 445
646 445
647 445
648 445
649 445
650 445
651 445
652 445
653 445
654 445
655 445
656 445
657 445
658 445
659 445
660 445
661 445
662 445
663 445
664 445
665 445
666 445
667 445
668 445
669 445
670 445
671 445
672 445
673 445
674 445
675 445
676 445
677 445
678 445
679 445
680 445
681 445
682 445
683 445
684 445
685 445
686 445
687 445
688 445
689 445
690 445
691 445
692 445
693 445
618 446
619 446
620 446
621 446
622 446
623 446
624 446
625 446
626 446
627 446
628 446
629 446
630 446
631 446
632 446
633 446
634 446
635 446
636 446
637 446
638 446
639 446
640 446
641 446
642 446
643 446
644 446
645 446
646 446
647 446
648 446
649 446
650 446
651 446
652 446
653 446
654 446
655 446
656 446
657 446
658 446
659 446
660 446
661 446
662 446
663 446
664 446
665 446
666 446
667 446
668 446
669 446
670 446
671 446
672 446
673 446
674 446
675 446
676 446
677 446
678 446
679 446
680 446
681 446
682 446
683 446
684 446
685 446
686 446
687 446
688 446
689 446
690 446
691 446
692 446
693 446
618 447
619 447
620 447
621 447
622 447
623 447
624 447
625 447
626 447
627 447
628 447
629 447
630 447
631 447
632 447
633 447
634 447
635 447
636 447
637 447
638 447
639 447
640 447
641 447
642 447
643 447
644 447
645 447
646 447
647 447
648 447
649 447
650 447
651 447
652 447
653 447
654 447
655 447
656 447
657 447
658 447
659 447
660 447
661 447
662 447
663 447
664 447
665 447
666 447
667 447
668 447
669 447
670 447
671 447
672 447
673 447
674 447
675 447
676 447
677 447
678 447
679 447
680 447
681 447
682 447
683 447
684 447
685 447
686 447
687 447
688 447
689 447
690 447
691 447
692 447
693 447
618 448
619 448
620 448
621 448
622 448
623 448
624 448
625 448
626 448
627 448
628 448
629 448
630 448
631 448
632 448
633 448
634 448
635 448
636 448
637 448
638 448
639 448
640 448
641 448
642 448
643 448
644 448
645 448
646 448
647 448
648 448
649 448
650 448
651 448
652 448
653 448
654 448
655 448
656 448
657 448
658 448
659 448
660 448
661 448
662 448
663 448
664 448
665 448
666 448
667 448
668 448
669 448
670 448
671 448
672 448
673 448
674 448
675 448
676 448
677 448
678 448
679 448
680 448
681 448
682 448
683 448
684 448
685 448
686 448
687 448
688 448
689 448
690 448
691 448
692 448
693 448
618 449
619 449
620 449
621 449
622 449
623 449
624 449
625 449
626 449
627 449
628 449
629 449
630 449
631 449
632 449
633 449
634 449
635 449
636 449
637 449
638 449
639 449
640 449
641 449
642 449
643 449
644 449
645 449
646 449
647 449
648 449
649 449
650 449
651 449
652 449
653 449
654 449
655 449
656 449
657 449
658 449
659 449
660 449
661 449
662 449
663 449
664 449
665 449
666 449
667 449
668 449
669 449
670 449
671 449
672 449
673 449
674 449
675 449
676 449
677 449
678 449
679 449
680 449
681 449
682 449
683 449
684 449
685 449
686 449
687 449
688 449
689 449
690 449
691 449
692 449
693 449
618 450
619 450
620 450
621 450
622 450
623 450
624 450
625 450
626 450
627 450
628 450
629 450
630 450
631 450
632 450
633 450
634 450
635 450
636 450
637 450
638 450
639 450
640 450
641 450
642 450
643 450
644 450
645 450
646 450
647 450
648 450
649 450
650 450
651 450
652 450
653 450
654 450
655 450
656 450
657 450
658 450
659 450
660 450
661 450
662 450
663 450
664 450
665 450
666 450
667 450
668 450
669 450
670 450
671 450
672 450
673 450
674 450
675 450
676 450
677 450
678 450
679 450
680 450
681 450
682 450
683 450
684 450
685 450
686 450
687 450
688 450
689 450
690 450
691 450
692 450
693 450
618 451
619 451
620 451
621 451
622 451
623 451
624 451
625 451
626 451
627 451
628 451
629 451
630 451
631 451
632 451
633 451
634 451
635 451
636 451
637 451
638 451
639 451
640 451
641 451
642 451
643 451
644 451
645 451
646 451
647 451
648 451
649 451
650 451
651 451
652 451
653 451
654 451
655 451
656 451
657 451
658 451
659 451
660 451
661 451
662 451
663 451
664 451
665 451
666 451
667 451
668 451
669 451
670 451
671 451
672 451
673 451
674 451
675 451
676 451
677 451
678 451
679 451
680 451
681 451
682 451
683 451
684 451
685 451
686 451
687 451
688 451
689 451
690 451
691 451
692 451
693 451
618 452
619 452
620 452
621 452
622 452
623 452
624 452
625 452
626 452
627 452
628 452
629 452
630 452
631 452
632 452
633 452
634 452
635 452
636 452
637 452
638 452
639 452
640 452
641 452
642 452
643 452
644 452
645 452
646 452
647 452
648 452
649 452
650 452
651 452
652 452
653 452
654 452
655 452
656 452
657 452
658 452
659 452
660 452
661 452
662 452
663 452
664 452
665 452
666 452
667 452
668 452
669 452
670 452
671 452
672 452
673 452
674 452
675 452
676 452
677 452
678 452
679 452
680 452
681 452
682 452
683 452
684 452
685 452
686 452
687 452
688 452
689 452
690 452
691 452
692 452
693 452
618 453
619 453
620 453
621 453
622 453
623 453
624 453
625 453
626 453
627 453
628 453
629 453
630 453
631 453
632 453
633 453
634 453
635 453
636 453
637 453
638 453
639 453
640 453
641 453
642 453
643 453
644 453
645 453
646 453
647 453
648 453
649 453
650 453
651 453
652 453
653 453
654 453
655 453
656 453
657 453
658 453
659 453
660 453
661 453
662 453
663 453
664 453
665 453
666 453
667 453
668 453
669 453
670 453
671 453
672 453
673 453
674 453
675 453
676 453
677 453
678 453
679 453
680 453
681 453
682 453
683 453
684 453
685 453
686 453
687 453
688 453
689 453
690 453
691 453
692 453
693 453
738 498
739 498
740 498
741 498
742 498
743 498
744 498
745 498
746 498
747 498
748 498
749 498
750 498
751 498
752 498
753 498
754 498
755 498
756 498
757 498
758 498
759 498
760 498
761 498
762 498
763 498
764 498
765 498
766 498
767 498
768 498
769 498
770 498
771 498
772 498
773 498
774 498
775 498
776 498
777 498
778 498
779 498
780 498
781 498
782 498
783 498
784 498
785 498
786 498
787 498
788 498
789 498
790 498
791 498
792 498
793 498
794 498
795 498
796 498
797 498
798 498
799 498
800 498
801 498
802 498
803 498
804 498
805 498
806 498
807 498
808 498
809 498
810 498
811 498
812 498
813 498
738 499
739 499
740 499
741 499
742 499
743 499
744 499
745 499
746 499
747 499
748 499
749 499
750 499
751 499
752 499
753 499
754 499
755 499
756 499
757 499
758 499
759 499
760 499
761 499
762 499
763 499
764 499
765 499
766 499
767 499
768 499
769 499
770 499
771 499
772 499
773 499
774 499
775 499
776 499
777 499
778 499
779 499
780 499
781 499
782 499
783 499
784 499
785 499
786 499
787 499
788 499
789 499
790 499
791 499
792 499
793 499
794 499
795 499
796 499
797 499
798 499
799 499
800 499
801 499
802 499
803 499
804 499
805 499
806 499
807 499
808 499
809 499
810 499
811 499
812 499
813 499
738 500
739 500
740 500
741 500
742 500
743 500
744 500
745 500
746 500
747 500
748 500
749 500
750 500
751 500
752 500
753 500
754 500
755 500
756 500
757 500
758 500
759 500
760 500
761 500
762 500
763 500
764 500
765 500
766 500
767 500
768 500
769 500
770 500
771 500
772 500
773 500
774 500
775 500
776 500
777 500
778 500
779 500
780 500
781 500
782 500
783 500
784 500
785 500
786 500
787 500
788 500
789 500
790 500
791 500
792 500
793 500
794 500
795 500
796 500
797 500
798 500
799 500
800 500
801 500
802 500
803 500
804 500
805 500
806 500
807 500
808 500
809 500
810 500
811 500
812 500
813 500
738 501
739 501
740 501
741 501
742 501
743 501
744 501
745 501
746 501
747 501
748 501
749 501
750 501
751 501
752 501
753 501
754 501
755 501
756 501
757 501
758 501
759 501
760 501
761 501
762 501
763 501
764 501
765 501
766 501
767 501
768 501
769 501
770 501
771 501
772 501
773 501
774 501
775 501
776 501
777 501
778 501
779 501
780 501
781 501
782 501
783 501
784 501
785 501
786 501
787 501
788 501
789 501
790 501
791 501
792 501
793 501
794 501
795 501
796 501
797 501
798 501
799 501
800 501
801 501
802 501
803 501
804 501
805 501
806 501
807 501
808 501
809 501
810 501
811 501
812 501
813 501
738 502
739 502
740 502
741 502
742 502
743 502
744 502
745 502
746 502
747 502
748 502
749 502
750 502
751 502
752 502
753 502
754 502
755 502
756 502
757 502
758 502
759 502
760 502
761 502
762 502
763 502
764 502
765 502
766 502
767 502
768 502
769 502
770 502
771 502
772 502
773 502
774 502
775 502
776 502
777 502
778 502
779 502
780 502
781 502
782 502
783 502
784 502
785 502
786 502
787 502
788 502
789 502
790 502
791 502
792 502
793 502
794 502
795 502
796 502
797 502
798 502
799 502
800 502
801 502
802 502
803 502
804 502
805 502
806 502
807 502
808 502
809 502
810 502
811 502
812 502
813 502
738 503
739 503
740 503
741 503
742 503
743 503
744 503
745 503
746 503
747 503
748 503
749 503
750 503
751 503
752 503
753 503
754 503
755 503
756 503
757 503
758 503
759 503
760 503
761 503
762 503
763 503
764 503
765 503
766 503
767 503
768 503
769 503
770 503
771 503
772 503
773 503
774 503
775 503
776 503
777 503
778 503
779 503
780 503
781 503
782 503
783 503
784 503
785 503
786 503
787 503
788 503
789 503
790 503
791 503
792 503
793 503
794 503
795 503
796 503
797 503
798 503
799 503
800 503
801 503
802 503
803 503
804 503
805 503
806 503
807 503
808 503
809 503
810 503
811 503
812 503
813 503
738 504
739 504
740 504
741 504
742 504
743 504
744 504
745 504
746 504
747 504
748 504
749 504
750 504
751 504
752 504
753 504
754 504
755 504
756 504
757 504
758 504
759 504
760 504
761 504
762 504
763 504
764 504
765 504
766 504
767 504
768 504
769 504
770 504
771 504
772 504
773 504
774 504
775 504
776 504
777 504
778 504
779 504
780 504
781 504
782 504
783 504
784 504
785 504
786 504
787 504
788 504
789 504
790 504
791 504
792 504
793 504
794 504
795 504
796 504
797 504
798 504
799 504
800 504
801 504
802 504
803 504
804 504
805 504
806 504
807 504
808 504
809 504
810 504
811 504
812 504
813 504
738 505
739 505
740 505
741 505
742 505
743 505
744 505
745 505
746 505
747 505
748 505
749 505
750 505
751 505
752 505
753 505
754 505
755 505
756 505
757 505
758 505
759 505
760 505
761 505
762 505
763 505
764 505
765 505
766 505
767 505
768 505
769 505
770 505
771 505
772 505
773 505
774 505
775 505
776 505
777 505
778 505
779 505
780 505
781 505
782 505
783 505
784 505
785 505
786 505
787 505
788 505
789 505
790 505
791 505
792 505
793 505
794 505
795 505
796 505
797 505
798 505
799 505
800 505
801 505
802 505
803 505
804 505
805 505
806 505
807 505
808 505
809 505
810 505
811 505
812 505
813 505
738 506
739 506
740 506
741 506
742 506
743 506
744 506
745 506
746 506
747 506
748 506
749 506
750 506
751 506
752 506
753 506
754 506
755 506
756 506
757 506
758 506
759 506
760 506
761 506
762 506
763 506
764 506
765 506
766 506
767 506
768 506
769 506
770 506
771 506
772 506
773 506
774 506
775 506
776 506
777 506
778 506
779 506
780 506
781 506
782 506
783 506
784 506
785 506
786 506
787 506
788 506
789 506
790 506
791 506
792 506
793 506
794 506
795 506
796 506
797 506
798 506
799 506
800 506
801 506
802 506
803 506
804 506
805 506
806 506
807 506
808 506
809 506
810 506
811 506
812 506
813 506
738 507
739 507
740 507
741 507
742 507
743 507
744 507
745 507
746 507
747 507
748 507
749 507
750 507
751 507
752 507
753 507
754 507
755 507
756 507
757 507
758 507
759 507
760 507
761 507
762 507
763 507
764 507
765 507
766 507
767 507
768 507
769 507
770 507
771 507
772 507
773 507
774 507
775 507
776 507
777 507
778 507
779 507
780 507
781 507
782 507
783 507
784 507
785 507
786 507
787 507
788 507
789 507
790 507
791 507
792 507
793 507
794 507
795 507
796 507
797 507
798 507
799 507
800 507
801 507
802 507
803 507
804 507
805 507
806 507
807 507
808 507
809 507
810 507
811 507
812 507
813 507
738 508
739 508
740 508
741 508
742 508
743 508
744 508
745 508
746 508
747 508
748 508
749 508
750 508
751 508
752 508
753 508
754 508
755 508
756 508
757 508
758 508
759 508
760 508
761 508
762 508
763 508
764 508
765 508
766 508
767 508
768 508
769 508
770 508
771 508
772 508
773 508
774 508
775 508
776 508
777 508
778 508
779 508
780 508
781 508
782 508
783 508
784 508
785 508
786 508
787 508
788 508
789 508
790 508
791 508
792 508
793 508
794 508
795 508
796 508
797 508
798 508
799 508
800 508
801 508
802 508
803 508
804 508
805 508
806 508
807 508
808 508
809 508
810 508
811 508
812 508
813 508
738 509
739 509
740 509
741 509
742 509
743 509
744 509
745 509
746 509
747 509
748 509
749 509
750 509
751 509
752 509
753 509
754 509
755 509
756 509
757 509
758 509
759 509
760 509
761 509
762 509
763 509
764 509
765 509
766 509
767 509
768 509
769 509
770 509
771 509
772 509
773 509
774 509
775 509
776 509
777 509
778 509
779 509
780 509
781 509
782 509
783 509
784 509
785 509
786 509
787 509
788 509
789 509
790 509
791 509
792 509
793 509
794 509
795 509
796 509
797 509
798 509
799 509
800 509
801 509
802 509
803 509
804 509
805 509
806 509
807 509
808 509
809 509
810 509
811 509
812 509
813 509
738 510
739 510
740 510
741 510
742 510
743 510
744 510
745 510
746 510
747 510
748 510
749 510
750 510
751 510
752 510
753 510
754 510
755 510
756 510
757 510
758 510
759 510
760 510
761 510
762 510
763 510
764 510
765 510
766 510
767 510
768 510
769 510
770 510
771 510
772 510
773 510
774 510
775 510
776 510
777 510
778 510
779 510
780 510
781 510
782 510
783 510
784 510
785 510
786 510
787 510
788 510
789 510
790 510
791 510
792 510
793 510
794 510
795 510
796 510
797 510
798 510
799 510
800 510
801 510
802 510
803 510
804 510
805 510
806 510
807 510
808 510
809 510
810 510
811 510
812 510
813 510
738 511
739 511
740 511
741 511
742 511
743 511
744 511
745 511
746 511
747 511
748 511
749 511
750 511
751 511
752 511
753 511
754 511
755 511
756 511
757 511
758 511
759 511
760 511
761 511
762 511
763 511
764 511
765 511
766 511
767 511
768 511
769 511
770 511
771 511
772 511
773 511
774 511
775 511
776 511
777 511
778 511
779 511
780 511
781 511
782 511
783 511
784 511
785 511
786 511
787 511
788 511
789 511
790 511
791 511
792 511
793 511
794 511
795 511
796 511
797 511
798 511
799 511
800 511
801 511
802 511
803 511
804 511
805 511
806 511
807 511
808 511
809 511
810 511
811 511
812 511
813 511
738 512
739 512
740 512
741 512
742 512
743 512
744 512
745 512
746 512
747 512
748 512
749 512
750 512
751 512
752 512
753 512
754 512
755 512
756 512
757 512
758 512
759 512
760 512
761 512
762 512
763 512
764 512
765 512
766 512
767 512
768 512
769 512
770 512
771 512
772 512
773 512
774 512
775 512
776 512
777 512
778 512
779 512
780 512
781 512
782 512
783 512
784 512
785 512
786 512
787 512
788 512
789 512
790 512
791 512
792 512
793 512
794 512
795 512
796 512
797 512
798 512
799 512
800 512
801 512
802 512
803 512
804 512
805 512
806 512
807 512
808 512
809 512
810 512
811 512
812 512
813 512
738 513
739 513
740 513
741 513
742 513
743 513
744 513
745 513
746 513
747 513
748 513
749 513
750 513
751 513
752 513
753 513
754 513
755 513
756 513
757 513
758 513
759 513
760 513
761 513
762 513
763 513
764 513
765 513
766 513
767 513
768 513
769 513
770 513
771 513
772 513
773 513
774 513
775 513
776 513
777 513
778 513
779 513
780 513
781 513
782 513
783 513
784 513
785 513
786 513
787 513
788 513
789 513
790 513
791 513
792 513
793 513
794 513
795 513
796 513
797 513
798 513
799 513
800 513
801 513
802 513
803 513
804 513
805 513
806 513
807 513
808 513
809 513
810 513
811 513
812 513
813 513
738 514
739 514
740 514
741 514
742 514
743 514
744 514
745 514
746 514
747 514
748 514
749 514
750 514
751 514
752 514
753 514
754 514
755 514
756 514
757 514
758 514
759 514
760 514
761 514
762 514
763 514
764 514
765 514
766 514
767 514
768 514
769 514
770 514
771 514
772 514
773 514
774 514
775 514
776 514
777 514
778 514
779 514
780 514
781 514
782 514
783 514
784 514
785 514
786 514
787 514
788 514
789 514
790 514
791 514
792 514
793 514
794 514
795 514
796 514
797 514
798 514
799 514
800 514
801 514
802 514
803 514
804 514
805 514
806 514
807 514
808 514
809 514
810 514
811 514
812 514
813 514
738 515
739 515
740 515
741 515
742 515
743 515
744 515
745 515
746 515
747 515
748 515
749 515
750 515
751 515
752 515
753 515
754 515
755 515
756 515
757 515
758 515
759 515
760 515
761 515
762 515
763 515
764 515
765 515
766 515
767 515
768 515
769 515
770 515
771 515
772 515
773 515
774 515
775 515
776 515
777 515
778 515
779 515
780 515
781 515
782 515
783 515
784 515
785 515
786 515
787 515
788 515
789 515
790 515
791 515
792 515
793 515
794 515
795 515
796 515
797 515
798 515
799 515
800 515
801 515
802 515
803 515
804 515
805 515
806 515
807 515
808 515
809 515
810 515
811 515
812 515
813 515
738 516
739 516
740 516
741 516
742 516
743 516
744 516
745 516
746 516
747 516
748 516
749 516
750 516
751 516
752 516
753 516
754 516
755 516
756 516
757 516
758 516
759 516
760 516
761 516
762 516
763 516
764 516
765 516
766 516
767 516
768 516
769 516
770 516
771 516
772 516
773 516
774 516
775 516
776 516
777 516
778 516
779 516
780 516
781 516
782 516
783 516
784 516
785 516
786 516
787 516
788 516
789 516
790 516
791 516
792 516
793 516
794 516
795 516
796 516
797 516
798 516
799 516
800 516
801 516
802 516
803 516
804 516
805 516
806 516
807 516
808 516
809 516
810 516
811 516
812 516
813 516
738 517
739 517
740 517
741 517
742 517
743 517
744 517
745 517
746 517
747 517
748 517
749 517
750 517
751 517
752 517
753 517
754 517
755 517
756 517
757 517
758 517
759 517
760 517
761 517
762 517
763 517
764 517
765 517
766 517
767 517
768 517
769 517
770 517
771 517
772 517
773 517
774 517
775 517
776 517
777 517
778 517
779 517
780 517
781 517
782 517
783 517
784 517
785 517
786 517
787 517
788 517
789 517
790 517
791 517
792 517
793 517
794 517
795 517
796 517
797 517
798 517
799 517
800 517
801 517
802 517
803 517
804 517
805 517
806 517
807 517
808 517
809 517
810 517
811 517
812 517
813 517
738 518
739 518
740 518
741 518
742 518
743 518
744 518
745 518
746 518
747 518
748 518
749 518
750 518
751 518
752 518
753 518
754 518
755 518
756 518
757 518
758 518
759 518
760 518
761 518
762 518
763 518
764 518
765 518
766 518
767 518
768 518
769 518
770 518
771 518
772 518
773 518
774 518
775 518
776 518
777 518
778 518
779 518
780 518
781 518
782 518
783 518
784 518
785 518
786 518
787 518
788 518
789 518
790 518
791 518
792 518
793 518
794 518
795 518
796 518
797 518
798 518
799 518
800 518
801 518
802 518
803 518
804 518
805 518
806 518
807 518
808 518
809 518
810 518
811 518
812 518
813 518
738 519
739 519
740 519
741 519
742 519
743 519
744 519
745 519
746 519
747 519
748 519
749 519
750 519
751 519
752 519
753 519
754 519
755 519
756 519
757 519
758 519
759 519
760 519
761 519
762 519
763 519
764 519
765 519
766 519
767 519
768 519
769 519
770 519
771 519
772 519
773 519
774 519
775 519
776 519
777 519
778 519
779 519
780 519
781 519
782 519
783 519
784 519
785 519
786 519
787 519
788 519
789 519
790 519
791 519
792 519
793 519
794 519
795 519
796 519
797 519
798 519
799 519
800 519
801 519
802 519
803 519
804 519
805 519
806 519
807 519
808 519
809 519
810 519
811 519
812 519
813 519
738 520
739 520
740 520
741 520
742 520
743 520
744 520
745 520
746 520
747 520
748 520
749 520
750 520
751 520
752 520
753 520
754 520
755 520
756 520
757 520
758 520
759 520
760 520
761 520
762 520
763 520
764 520
765 520
766 520
767 520
768 520
769 520
770 520
771 520
772 520
773 520
774 520
775 520
776 520
777 520
778 520
779 520
780 520
781 520
782 520
783 520
784 520
785 520
786 520
787 520
788 520
789 520
790 520
791 520
792 520
793 520
794 520
795 520
796 520
797 520
798 520
799 520
800 520
801 520
802 520
803 520
804 520
805 520
806 520
807 520
808 520
809 520
810 520
811 520
812 520
813 520
738 521
739 521
740 521
741 521
742 521
743 521
744 521
745 521
746 521
747 521
748 521
749 521
750 521
751 521
752 521
753 521
754 521
755 521
756 521
757 521
758 521
759 521
760 521
761 521
762 521
763 521
764 521
765 521
766 521
767 521
768 521
769 521
770 521
771 521
772 521
773 521
774 521
775 521
776 521
777 521
778 521
779 521
780 521
781 521
782 521
783 521
784 521
785 521
786 521
787 521
788 521
789 521
790 521
791 521
792 521
793 521
794 521
795 521
796 521
797 521
798 521
799 521
800 521
801 521
802 521
803 521
804 521
805 521
806 521
807 521
808 521
809 521
810 521
811 521
812 521
813 521
738 522
739 522
740 522
741 522
742 522
743 522
744 522
745 522
746 522
747 522
748 522
749 522
750 522
751 522
752 522
753 522
754 522
755 522
756 522
757 522
758 522
759 522
760 522
761 522
762 522
763 522
764 522
765 522
766 522
767 522
768 522
769 522
770 522
771 522
772 522
773 522
774 522
775 522
776 522
777 522
778 522
779 522
780 522
781 522
782 522
783 522
784 522
785 522
786 522
787 522
788 522
789 522
790 522
791 522
792 522
793 522
794 522
795 522
796 522
797 522
798 522
799 522
800 522
801 522
802 522
803 522
804 522
805 522
806 522
807 522
808 522
809 522
810 522
811 522
812 522
813 522
738 523
739 523
740 523
741 523
742 523
743 523
744 523
745 523
746 523
747 523
748 523
749 523
750 523
751 523
752 523
753 523
754 523
755 523
756 523
757 523
758 523
759 523
760 523
761 523
762 523
763 523
764 523
765 523
766 523
767 523
768 523
769 523
770 523
771 523
772 523
773 523
774 523
775 523
776 523
777 523
778 523
779 523
780 523
781 523
782 523
783 523
784 523
785 523
786 523
787 523
788 523
789 523
790 523
791 523
792 523
793 523
794 523
795 523
796 523
797 523
798 523
799 523
800 523
801 523
802 523
803 523
804 523
805 523
806 523
807 523
808 523
809 523
810 523
811 523
812 523
813 523
738 524
739 524
740 524
741 524
742 524
743 524
744 524
745 524
746 524
747 524
748 524
749 524
750 524
751 524
752 524
753 524
754 524
755 524
756 524
757 524
758 524
759 524
760 524
761 524
762 524
763 524
764 524
765 524
766 524
767 524
768 524
769 524
770 524
771 524
772 524
773 524
774 524
775 524
776 524
777 524
778 524
779 524
780 524
781 524
782 524
783 524
784 524
785 524
786 524
787 524
788 524
789 524
790 524
791 524
792 524
793 524
794 524
795 524
796 524
797 524
798 524
799 524
800 524
801 524
802 524
803 524
804 524
805 524
806 524
807 524
808 524
809 524
810 524
811 524
812 524
813 524
738 525
739 525
740 525
741 525
742 525
743 525
744 525
745 525
746 525
747 525
748 525
749 525
750 525
751 525
752 525
753 525
754 525
755 525
756 525
757 525
758 525
759 525
760 525
761 525
762 525
763 525
764 525
765 525
766 525
767 525
768 525
769 525
770 525
771 525
772 525
773 525
774 525
775 525
776 525
777 525
778 525
779 525
780 525
781 525
782 525
783 525
784 525
785 525
786 525
787 525
788 525
789 525
790 525
791 525
792 525
793 525
794 525
795 525
796 525
797 525
798 525
799 525
800 525
801 525
802 525
803 525
804 525
805 525
806 525
807 525
808 525
809 525
810 525
811 525
812 525
813 525
738 526
739 526
740 526
741 526
742 526
743 526
744 526
745 526
746 526
747 526
748 526
749 526
750 526
751 526
752 526
753 526
754 526
755 526
756 526
757 526
758 526
759 526
760 526
761 526
762 526
763 526
764 526
765 526
766 526
767 526
768 526
769 526
770 526
771 526
772 526
773 526
774 526
775 526
776 526
777 526
778 526
779 526
780 526
781 526
782 526
783 526
784 526
785 526
786 526
787 526
788 526
789 526
790 526
791 526
792 526
793 526
794 526
795 526
796 526
797 526
798 526
799 526
800 526
801 526
802 526
803 526
804 526
805 526
806 526
807 526
808 526
809 526
810 526
811 526
812 526
813 526
738 527
739 527
740 527
741 527
742 527
743 527
744 527
745 527
746 527
747 527
748 527
749 527
750 527
751 527
752 527
753 527
754 527
755 527
756 527
757 527
758 527
759 527
760 527
761 527
762 527
763 527
764 527
765 527
766 527
767 527
768 527
769 527
770 527
771 527
772 527
773 527
774 527
775 527
776 527
777 527
778 527
779 527
780 527
781 527
782 527
783 527
784 527
785 527
786 527
787 527
788 527
789 527
790 527
791 527
792 527
793 527
794 527
795 527
796 527
797 527
798 527
799 527
800 527
801 527
802 527
803 527
804 527
805 527
806 527
807 527
808 527
809 527
810 527
811 527
812 527
813 527
738 528
739 528
740 528
741 528
742 528
743 528
744 528
745 528
746 528
747 528
748 528
749 528
750 528
751 528
752 528
753 528
754 528
755 528
756 528
757 528
758 528
759 528
760 528
761 528
762 528
763 528
764 528
765 528
766 528
767 528
768 528
769 528
770 528
771 528
772 528
773 528
774 528
775 528
776 528
777 528
778 528
779 528
780 528
781 528
782 528
783 528
784 528
785 528
786 528
787 528
788 528
789 528
790 528
791 528
792 528
793 528
794 528
795 528
796 528
797 528
798 528
799 528
800 528
801 528
802 528
803 528
804 528
805 528
806 528
807 528
808 528
809 528
810 528
811 528
812 528
813 528
738 529
739 529
740 529
741 529
742 529
743 529
744 529
745 529
746 529
747 529
748 529
749 529
750 529
751 529
752 529
753 529
754 529
755 529
756 529
757 529
758 529
759 529
760 529
761 529
762 529
763 529
764 529
765 529
766 529
767 529
768 529
769 529
770 529
771 529
772 529
773 529
774 529
775 529
776 529
777 529
778 529
779 529
780 529
781 529
782 529
783 529
784 529
785 529
786 529
787 529
788 529
789 529
790 529
791 529
792 529
793 529
794 529
795 529
796 529
797 529
798 529
799 529
800 529
801 529
802 529
803 529
804 529
805 529
806 529
807 529
808 529
809 529
810 529
811 529
812 529
813 529
738 530
739 530
740 530
741 530
742 530
743 530
744 530
745 530
746 530
747 530
748 530
749 530
750 530
751 530
752 530
753 530
754 530
755 530
756 530
757 530
758 530
759 530
760 530
761 530
762 530
763 530
764 530
765 530
766 530
767 530
768 530
769 530
770 530
771 530
772 530
773 530
774 530
775 530
776 530
777 530
778 530
779 530
780 530
781 530
782 530
783 530
784 530
785 530
786 530
787 530
788 530
789 530
790 530
791 530
792 530
793 530
794 530
795 530
796 530
797 530
798 530
799 530
800 530
801 530
802 530
803 530
804 530
805 530
806 530
807 530
808 530
809 530
810 530
811 530
812 530
813 530
738 531
739 531
740 531
741 531
742 531
743 531
744 531
745 531
746 531
747 531
748 531
749 531
750 531
751 531
752 531
753 531
754 531
755 531
756 531
757 531
758 531
759 531
760 531
761 531
762 531
763 531
764 531
765 531
766 531
767 531
768 531
769 531
770 531
771 531
772 531
773 531
774 531
775 531
776 531
777 531
778 531
779 531
780 531
781 531
782 531
783 531
784 531
785 531
786 531
787 531
788 531
789 531
790 531
791 531
792 531
793 531
794 531
795 531
796 531
797 531
798 531
799 531
800 531
801 531
802 531
803 531
804 531
805 531
806 531
807 531
808 531
809 531
810 531
811 531
812 531
813 531
738 532
739 532
740 532
741 532
742 532
743 532
744 532
745 532
746 532
747 532
748 532
749 532
750 532
751 532
752 532
753 532
754 532
755 532
756 532
757 532
758 532
759 532
760 532
761 532
762 532
763 532
764 532
765 532
766 532
767 532
768 532
769 532
770 532
771 532
772 532
773 532
774 532
775 532
776 532
777 532
778 532
779 532
780 532
781 532
782 532
783 532
784 532
785 532
786 532
787 532
788 532
789 532
790 532
791 532
792 532
793 532
794 532
795 532
796 532
797 532
798 532
799 532
800 532
801 532
802 532
803 532
804 532
805 532
806 532
807 532
808 532
809 532
810 532
811 532
812 532
813 532
738 533
739 533
740 533
741 533
742 533
743 533
744 533
745 533
746 533
747 533
748 533
749 533
750 533
751 533
752 533
753 533
754 533
755 533
756 533
757 533
758 533
759 533
760 533
761 533
762 533
763 533
764 533
765 533
766 533
767 533
768 533
769 533
770 533
771 533
772 533
773 533
774 533
775 533
776 533
777 533
778 533
779 533
780 533
781 533
782 533
783 533
784 533
785 533
786 533
787 533
788 533
789 533
790 533
791 533
792 533
793 533
794 533
795 533
796 533
797 533
798 533
799 533
800 533
801 533
802 533
803 533
804 533
805 533
806 533
807 533
808 533
809 533
810 533
811 533
812 533
813 533
738 534
739 534
740 534
741 534
742 534
743 534
744 534
745 534
746 534
747 534
748 534
749 534
750 534
751 534
752 534
753 534
754 534
755 534
756 534
757 534
758 534
759 534
760 534
761 534
762 534
763 534
764 534
765 534
766 534
767 534
768 534
769 534
770 534
771 534
772 534
773 534
774 534
775 534
776 534
777 534
778 534
779 534
780 534
781 534
782 534
783 534
784 534
785 534
786 534
787 534
788 534
789 534
790 534
791 534
792 534
793 534
794 534
795 534
796 534
797 534
798 534
799 534
800 534
801 534
802 534
803 534
804 534
805 534
806 534
807 534
808 534
809 534
810 534
811 534
812 534
813 534
858 579
859 579
860 579
861 579
862 579
863 579
864 579
865 579
866 579
867 579
868 579
869 579
870 579
871 579
872 579
873 579
874 579
875 579
876 579
877 579
878 579
879 579
880 579
881 579
882 579
883 579
884 579
885 579
886 579
887 579
888 579
889 579
890 579
891 579
892 579
893 579
894 579
895 579
896 579
897 579
898 579
899 579
900 579
901 579
902 579
903 579
904 579
905 579
906 579
907 579
908 579
909 579
910 579
911 579
912 579
913 579
914 579
915 579
916 579
917 579
918 579
919 579
920 579
921 579
922 579
923 579
924 579
925 579
926 579
927 579
928 579
929 579
930 579
931 579
932 579
933 579
858 580
859 580
860 580
861 580
862 580
863 580
864 580
865 580
866 580
867 580
868 580
869 580
870 580
871 580
872 580
873 580
874 580
875 580
876 580
877 580
878 580
879 580
880 580
881 580
882 580
883 580
884 580
885 580
886 580
887 580
888 580
889 580
890 580
891 580
892 580
893 580
894 580
895 580
896 580
897 580
898 580
899 580
900 580
901 580
902 580
903 580
904 580
905 580
906 580
907 580
908 580
909 580
910 580
911 580
912 580
913 580
914 580
915 580
916 580
917 580
918 580
919 580
920 580
921 580
922 580
923 580
924 580
925 580
926 580
927 580
928 580
929 580
930 580
931 580
932 580
933 580
858 581
859 581
860 581
861 581
862 581
863 581
864 581
865 581
866 581
867 581
868 581
869 581
870 581
871 581
872 581
873 581
874 581
875 581
876 581
877 581
878 581
879 581
880 581
881 581
882 581
883 581
884 581
885 581
886 581
887 581
888 581
889 581
890 581
891 581
892 581
893 581
894 581
895 581
896 581
897 581
898 581
899 581
900 581
901 581
902 581
903 581
904 581
905 581
906 581
907 581
908 581
909 581
910 581
911 581
912 581
913 581
914 581
915 581
916 581
917 581
918 581
919 581
920 581
921 581
922 581
923 581
924 581
925 581
926 581
927 581
928 581
929 581
930 581
931 581
932 581
933 581
858 582
859 582
860 582
861 582
862 582
863 582
864 582
865 582
866 582
867 582
868 582
869 582
870 582
871 582
872 582
873 582
874 582
875 582
876 582
877 582
878 582
879 582
880 582
881 582
882 582
883 582
884 582
885 582
886 582
887 582
888 582
889 582
890 582
891 582
892 582
893 582
894 582
895 582
896 582
897 582
898 582
899 582
900 582
901 582
902 582
903 582
904 582
905 582
906 582
907 582
908 582
909 582
910 582
911 582
912 582
913 582
914 582
915 582
916 582
917 582
918 582
919 582
920 582
921 582
922 582
923 582
924 582
925 582
926 582
927 582
928 582
929 582
930 582
931 582
932 582
933 582
858 583
859 583
860 583
861 583
862 583
863 583
864 583
865 583
866 583
867 583
868 583
869 583
870 583
871 583
872 583
873 583
874 583
875 583
876 583
877 583
878 583
879 583
880 583
881 583
882 583
883 583
884 583
885 583
886 583
887 583
888 583
889 583
890 583
891 583
892 583
893 583
894 583
895 583
896 583
897 583
898 583
899 583
900 583
901 583
902 583
903 583
904 583
905 583
906 583
907 583
908 583
909 583
910 583
911 583
912 583
913 583
914 583
915 583
916 583
917 583
918 583
919 583
920 583
921 583
922 583
923 583
924 583
925 583
926 583
927 583
928 583
929 583
930 583
931 583
932 583
933 583
858 584
859 584
860 584
861 584
862 584
863 584
864 584
865 584
866 584
867 584
868 584
869 584
870 584
871 584
872 584
873 584
874 584
875 584
876 584
877 584
878 584
879 584
880 584
881 584
882 584
883 584
884 584
885 584
886 584
887 584
888 584
889 584
890 584
891 584
892 584
893 584
894 584
895 584
896 584
897 584
898 584
899 584
900 584
901 584
902 584
903 584
904 584
905 584
906 584
907 584
908 584
909 584
910 584
911 584
912 584
913 584
914 584
915 584
916 584
917 584
918 584
919 584
920 584
921 584
922 584
923 584
924 584
925 584
926 584
927 584
928 584
929 584
930 584
931 584
932 584
933 584
858 585
859 585
860 585
861 585
862 585
863 585
864 585
865 585
866 585
867 585
868 585
869 585
870 585
871 585
872 585
873 585
874 585
875 585
876 585
877 585
878 585
879 585
880 585
881 585
882 585
883 585
884 585
885 585
886 585
887 585
888 585
889 585
890 585
891 585
892 585
893 585
894 585
895 585
896 585
897 585
898 585
899 585
900 585
901 585
902 585
903 585
904 585
905 585
906 585
907 585
908 585
909 585
910 585
911 585
912 585
913 585
914 585
915 585
916 585
917 585
918 585
919 585
920 585
921 585
922 585
923 585
924 585
925 585
926 585
927 585
928 585
929 585
930 585
931 585
932 585
933 585
858 586
859 586
860 586
861 586
862 586
863 586
864 586
865 586
866 586
867 586
868 586
869 586
870 586
871 586
872 586
873 586
874 586
875 586
876 586
877 586
878 586
879 586
880 586
881 586
882 586
883 586
884 586
885 586
886 586
887 586
888 586
889 586
890 586
891 586
892 586
893 586
894 586
895 586
896 586
897 586
898 586
899 586
900 586
901 586
902 586
903 586
904 586
905 586
906 586
907 586
908 586
909 586
910 586
911 586
912 586
913 586
914 586
915 586
916 586
917 586
918 586
919 586
920 586
921 586
922 586
923 586
924 586
925 586
926 586
927 586
928 586
929 586
930 586
931 586
932 586
933 586
858 587
859 587
860 587
861 587
862 587
863 587
864 587
865 587
866 587
867 587
868 587
869 587
870 587
871 587
872 587
873 587
874 587
875 587
876 587
877 587
878 587
879 587
880 587
881 587
882 587
883 587
884 587
885 587
886 587
887 587
888 587
889 587
890 587
891 587
892 587
893 587
894 587
895 587
896 587
897 587
898 587
899 587
900 587
901 587
902 587
903 587
904 587
905 587
906 587
907 587
908 587
909 587
910 587
911 587
912 587
913 587
914 587
915 587
916 587
917 587
918 587
919 587
920 587
921 587
922 587
923 587
924 587
925 587
926 587
927 587
928 587
929 587
930 587
931 587
932 587
933 587
858 588
859 588
860 588
861 588
862 588
863 588
864 588
865 588
866 588
867 588
868 588
869 588
870 588
871 588
872 588
873 588
874 588
875 588
876 588
877 588
878 588
879 588
880 588
881 588
882 588
883 588
884 588
885 588
886 588
887 588
888 588
889 588
890 588
891 588
892 588
893 588
894 588
895 588
896 588
897 588
898 588
899 588
900 588
901 588
902 588
903 588
904 588
905 588
906 588
907 588
908 588
909 588
910 588
911 588
912 588
913 588
914 588
915 588
916 588
917 588
918 588
919 588
920 588
921 588
922 588
923 588
924 588
925 588
926 588
927 588
928 588
929 588
930 588
931 588
932 588
933 588
858 589
859 589
860 589
861 589
862 589
863 589
864 589
865 589
866 589
867 589
868 589
869 589
870 589
871 589
872 589
873 589
874 589
875 589
876 589
877 589
878 589
879 589
880 589
881 589
882 589
883 589
884 589
885 589
886 589
887 589
888 589
889 589
890 589
891 589
892 589
893 589
894 589
895 589
896 589
897 589
898 589
899 589
900 589
901 589
902 589
903 589
904 589
905 589
906 589
907 589
908 589
909 589
910 589
911 589
912 589
913 589
914 589
915 589
916 589
917 589
918 589
919 589
920 589
921 589
922 589
923 589
924 589
925 589
926 589
927 589
928 589
929 589
930 589
931 589
932 589
933 589
858 590
859 590
860 590
861 590
862 590
863 590
864 590
865 590
866 590
867 590
868 590
869 590
870 590
871 590
872 590
873 590
874 590
875 590
876 590
877 590
878 590
879 590
880 590
881 590
882 590
883 590
884 590
885 590
886 590
887 590
888 590
889 590
890 590
891 590
892 590
893 590
894 590
895 590
896 590
897 590
898 590
899 590
900 590
901 590
902 590
903 590
904 590
905 590
906 590
907 590
908 590
909 590
910 590
911 590
912 590
913 590
914 590
915 590
916 590
917 590
918 590
919 590
920 590
921 590
922 590
923 590
924 590
925 590
926 590
927 590
928 590
929 590
930 590
931 590
932 590
933 590
858 591
859 591
860 591
861 591
862 591
863 591
864 591
865 591
866 591
867 591
868 591
869 591
870 591
871 591
872 591
873 591
874 591
875 591
876 591
877 591
878 591
879 591
880 591
881 591
882 591
883 591
884 591
885 591
886 591
887 591
888 591
889 591
890 591
891 591
892 591
893 591
894 591
895 591
896 591
897 591
898 591
899 591
900 591
901 591
902 591
903 591
904 591
905 591
906 591
907 591
908 591
909 591
910 591
911 591
912 591
913 591
914 591
915 591
916 591
917 591
918 591
919 591
920 591
921 591
922 591
923 591
924 591
925 591
926 591
927 591
928 591
929 591
930 591
931 591
932 591
933 591
858 592
859 592
860 592
861 592
862 592
863 592
864 592
865 592
866 592
867 592
868 592
869 592
870 592
871 592
872 592
873 592
874 592
875 592
876 592
877 592
878 592
879 592
880 592
881 592
882 592
883 592
884 592
885 592
886 592
887 592
888 592
889 592
890 592
891 592
892 592
893 592
894 592
895 592
896 592
897 592
898 592
899 592
900 592
901 592
902 592
903 592
904 592
905 592
906 592
907 592
908 592
909 592
910 592
911 592
912 592
913 592
914 592
915 592
916 592
917 592
918 592
919 592
920 592
921 592
922 592
923 592
924 592
925 592
926 592
927 592
928 592
929 592
930 592
931 592
932 592
933 592
858 593
859 593
860 593
861 593
862 593
863 593
864 593
865 593
866 593
867 593
868 593
869 593
870 593
871 593
872 593
873 593
874 593
875 593
876 593
877 593
878 593
879 593
880 593
881 593
882 593
883 593
884 593
885 593
886 593
887 593
888 593
889 593
890 593
891 593
892 593
893 593
894 593
895 593
896 593
897 593
898 593
899 593
900 593
901 593
902 593
903 593
904 593
905 593
906 593
907 593
908 593
909 593
910 593
911 593
912 593
913 593
914 593
915 593
916 593
917 593
918 593
919 593
920 593
921 593
922 593
923 593
924 593
925 593
926 593
927 593
928 593
929 593
930 593
931 593
932 593
933 593
858 594
859 594
860 594
861 594
862 594
863 594
864 594
865 594
866 594
867 594
868 594
869 594
870 594
871 594
872 594
873 594
874 594
875 594
876 594
877 594
878 594
879 594
880 594
881 594
882 594
883 594
884 594
885 594
886 594
887 594
888 594
889 594
890 594
891 594
892 594
893 594
894 594
895 594
896 594
897 594
898 594
899 594
900 594
901 594
902 594
903 594
904 594
905 594
906 594
907 594
908 594
909 594
910 594
911 594
912 594
913 594
914 594
915 594
916 594
917 594
918 594
919 594
920 594
921 594
922 594
923 594
924 594
925 594
926 594
927 594
928 594
929 594
930 594
931 594
932 594
933 594
858 595
859 595
860 595
861 595
862 595
863 595
864 595
865 595
866 595
867 595
868 595
869 595
870 595
871 595
872 595
873 595
874 595
875 595
876 595
877 595
878 595
879 595
880 595
881 595
882 595
883 595
884 595
885 595
886 595
887 595
888 595
889 595
890 595
891 595
892 595
893 595
894 595
895 595
896 595
897 595
898 595
899 595
900 595
901 595
902 595
903 595
904 595
905 595
906 595
907 595
908 595
909 595
910 595
911 595
912 595
913 595
914 595
915 595
916 595
917 595
918 595
919 595
920 595
921 595
922 595
923 595
924 595
925 595
926 595
927 595
928 595
929 595
930 595
931 595
932 595
933 595
858 596
859 596
860 596
861 596
862 596
863 596
864 596
865 596
866 596
867 596
868 596
869 596
870 596
871 596
872 596
873 596
874 596
875 596
876 596
877 596
878 596
879 596
880 596
881 596
882 596
883 596
884 596
885 596
886 596
887 596
888 596
889 596
890 596
891 596
892 596
893 596
894 596
895 596
896 596
897 596
898 596
899 596
900 596
901 596
902 596
903 596
904 596
905 596
906 596
907 596
908 596
909 596
910 596
911 596
912 596
913 596
914 596
915 596
916 596
917 596
918 596
919 596
920 596
921 596
922 596
923 596
924 596
925 596
926 596
927 596
928 596
929 596
930 596
931 596
932 596
933 596
858 597
859 597
860 597
861 597
862 597
863 597
864 597
865 597
866 597
867 597
868 597
869 597
870 597
871 597
872 597
873 597
874 597
875 597
876 597
877 597
878 597
879 597
880 597
881 597
882 597
883 597
884 597
885 597
886 597
887 597
888 597
889 597
890 597
891 597
892 597
893 597
894 597
895 597
896 597
897 597
898 597
899 597
900 597
901 597
902 597
903 597
904 597
905 597
906 597
907 597
908 597
909 597
910 597
911 597
912 597
913 597
914 597
915 597
916 597
917 597
918 597
919 597
920 597
921 597
922 597
923 597
924 597
925 597
926 597
927 597
928 597
929 597
930 597
931 597
932 597
933 597
858 598
859 598
860 598
861 598
862 598
863 598
864 598
865 598
866 598
867 598
868 598
869 598
870 598
871 598
872 598
873 598
874 598
875 598
876 598
877 598
878 598
879 598
880 598
881 598
882 598
883 598
884 598
885 598
886 598
887 598
888 598
889 598
890 598
891 598
892 598
893 598
894 598
895 598
896 598
897 598
898 598
899 598
900 598
901 598
902 598
903 598
904 598
905 598
906 598
907 598
908 598
909 598
910 598
911 598
912 598
913 598
914 598
915 598
916 598
917 598
918 598
919 598
920 598
921 598
922 598
923 598
924 598
925 598
926 598
927 598
928 598
929 598
930 598
931 598
932 598
933 598
858 599
859 599
860 599
861 599
862 599
863 599
864 599
865 599
866 599
867 599
868 599
869 599
870 599
871 599
872 599
873 599
874 599
875 599
876 599
877 599
878 599
879 599
880 599
881 599
882 599
883 599
884 599
885 599
886 599
887 599
888 599
889 599
890 599
891 599
892 599
893 599
894 599
895 599
896 599
897 599
898 599
899 599
900 599
901 599
902 599
903 599
904 599
905 599
906 599
907 599
908 599
909 599
910 599
911 599
912 599
913 599
914 599
915 599
916 599
917 599
918 599
919 599
920 599
921 599
922 599
923 599
924 599
925 599
926 599
927 599
928 599
929 599
930 599
931 599
932 599
933 599
858 600
859 600
860 600
861 600
862 600
863 600
864 600
865 600
866 600
867 600
868 600
869 600
870 600
871 600
872 600
873 600
874 600
875 600
876 600
877 600
878 600
879 600
880 600
881 600
882 600
883 600
884 600
885 600
886 600
887 600
888 600
889 600
890 600
891 600
892 600
893 600
894 600
895 600
896 600
897 600
898 600
899 600
900 600
901 600
902 600
903 600
904 600
905 600
906 600
907 600
908 600
909 600
910 600
911 600
912 600
913 600
914 600
915 600
916 600
917 600
918 600
919 600
920 600
921 600
922 600
923 600
924 600
925 600
926 600
927 600
928 600
929 600
930 600
931 600
932 600
933 600
858 601
859 601
860 601
861 601
862 601
863 601
864 601
865 601
866 601
867 601
868 601
869 601
870 601
871 601
872 601
873 601
874 601
875 601
876 601
877 601
878 601
879 601
880 601
881 601
882 601
883 601
884 601
885 601
886 601
887 601
888 601
889 601
890 601
891 601
892 601
893 601
894 601
895 601
896 601
897 601
898 601
899 601
900 601
901 601
902 601
903 601
904 601
905 601
906 601
907 601
908 601
909 601
910 601
911 601
912 601
913 601
914 601
915 601
916 601
917 601
918 601
919 601
920 601
921 601
922 601
923 601
924 601
925 601
926 601
927 601
928 601
929 601
930 601
931 601
932 601
933 601
858 602
859 602
860 602
861 602
862 602
863 602
864 602
865 602
866 602
867 602
868 602
869 602
870 602
871 602
872 602
873 602
874 602
875 602
876 602
877 602
878 602
879 602
880 602
881 602
882 602
883 602
884 602
885 602
886 602
887 602
888 602
889 602
890 602
891 602
892 602
893 602
894 602
895 602
896 602
897 602
898 602
899 602
900 602
901 602
902 602
903 602
904 602
905 602
906 602
907 602
908 602
909 602
910 602
911 602
912 602
913 602
914 602
915 602
916 602
917 602
918 602
919 602
920 602
921 602
922 602
923 602
924 602
925 602
926 602
927 602
928 602
929 602
930 602
931 602
932 602
933 602
858 603
859 603
860 603
861 603
862 603
863 603
864 603
865 603
866 603
867 603
868 603
869 603
870 603
871 603
872 603
873 603
874 603
875 603
876 603
877 603
878 603
879 603
880 603
881 603
882 603
883 603
884 603
885 603
886 603
887 603
888 603
889 603
890 603
891 603
892 603
893 603
894 603
895 603
896 603
897 603
898 603
899 603
900 603
901 603
902 603
903 603
904 603
905 603
906 603
907 603
908 603
909 603
910 603
911 603
912 603
913 603
914 603
915 603
916 603
917 603
918 603
919 603
920 603
921 603
922 603
923 603
924 603
925 603
926 603
927 603
928 603
929 603
930 603
931 603
932 603
933 603
858 604
859 604
860 604
861 604
862 604
863 604
864 604
865 604
866 604
867 604
868 604
869 604
870 604
871 604
872 604
873 604
874 604
875 604
876 604
877 604
878 604
879 604
880 604
881 604
882 604
883 604
884 604
885 604
886 604
887 604
888 604
889 604
890 604
891 604
892 604
893 604
894 604
895 604
896 604
897 604
898 604
899 604
900 604
901 604
902 604
903 604
904 604
905 604
906 604
907 604
908 604
909 604
910 604
911 604
912 604
913 604
914 604
915 604
916 604
917 604
918 604
919 604
920 604
921 604
922 604
923 604
924 604
925 604
926 604
927 604
928 604
929 604
930 604
931 604
932 604
933 604
858 605
859 605
860 605
861 605
862 605
863 605
864 605
865 605
866 605
867 605
868 605
869 605
870 605
871 605
872 605
873 605
874 605
875 605
876 605
877 605
878 605
879 605
880 605
881 605
882 605
883 605
884 605
885 605
886 605
887 605
888 605
889 605
890 605
891 605
892 605
893 605
894 605
895 605
896 605
897 605
898 605
899 605
900 605
901 605
902 605
903 605
904 605
905 605
906 605
907 605
908 605
909 605
910 605
911 605
912 605
913 605
914 605
915 605
916 605
917 605
918 605
919 605
920 605
921 605
922 605
923 605
924 605
925 605
926 605
927 605
928 605
929 605
930 605
931 605
932 605
933 605
858 606
859 606
860 606
861 606
862 606
863 606
864 606
865 606
866 606
867 606
868 606
869 606
870 606
871 606
872 606
873 606
874 606
875 606
876 606
877 606
878 606
879 606
880 606
881 606
882 606
883 606
884 606
885 606
886 606
887 606
888 606
889 606
890 606
891 606
892 606
893 606
894 606
895 606
896 606
897 606
898 606
899 606
900 606
901 606
902 606
903 606
904 606
905 606
906 606
907 606
908 606
909 606
910 606
911 606
912 606
913 606
914 606
915 606
916 606
917 606
918 606
919 606
920 606
921 606
922 606
923 606
924 606
925 606
926 606
927 606
928 606
929 606
930 606
931 606
932 606
933 606
858 607
859 607
860 607
861 607
862 607
863 607
864 607
865 607
866 607
867 607
868 607
869 607
870 607
871 607
872 607
873 607
874 607
875 607
876 607
877 607
878 607
879 607
880 607
881 607
882 607
883 607
884 607
885 607
886 607
887 607
888 607
889 607
890 607
891 607
892 607
893 607
894 607
895 607
896 607
897 607
898 607
899 607
900 607
901 607
902 607
903 607
904 607
905 607
906 607
907 607
908 607
909 607
910 607
911 607
912 607
913 607
914 607
915 607
916 607
917 607
918 607
919 607
920 607
921 607
922 607
923 607
924 607
925 607
926 607
927 607
928 607
929 607
930 607
931 607
932 607
933 607
858 608
859 608
860 608
861 608
862 608
863 608
864 608
865 608
866 608
867 608
868 608
869 608
870 608
871 608
872 608
873 608
874 608
875 608
876 608
877 608
878 608
879 608
880 608
881 608
882 608
883 608
884 608
885 608
886 608
887 608
888 608
889 608
890 608
891 608
892 608
893 608
894 608
895 608
896 608
897 608
898 608
899 608
900 608
901 608
902 608
903 608
904 608
905 608
906 608
907 608
908 608
909 608
910 608
911 608
912 608
913 608
914 608
915 608
916 608
917 608
918 608
919 608
920 608
921 608
922 608
923 608
924 608
925 608
926 608
927 608
928 608
929 608
930 608
931 608
932 608
933 608
858 609
859 609
860 609
861 609
862 609
863 609
864 609
865 609
866 609
867 609
868 609
869 609
870 609
871 609
872 609
873 609
874 609
875 609
876 609
877 609
878 609
879 609
880 609
881 609
882 609
883 609
884 609
885 609
886 609
887 609
888 609
889 609
890 609
891 609
892 609
893 609
894 609
895 609
896 609
897 609
898 609
899 609
900 609
901 609
902 609
903 609
904 609
905 609
906 609
907 609
908 609
909 609
910 609
911 609
912 609
913 609
914 609
915 609
916 609
917 609
918 609
919 609
920 609
921 609
922 609
923 609
924 609
925 609
926 609
927 609
928 609
929 609
930 609
931 609
932 609
933 609
858 610
859 610
860 610
861 610
862 610
863 610
864 610
865 610
866 610
867 610
868 610
869 610
870 610
871 610
872 610
873 610
874 610
875 610
876 610
877 610
878 610
879 610
880 610
881 610
882 610
883 610
884 610
885 610
886 610
887 610
888 610
889 610
890 610
891 610
892 610
893 610
894 610
895 610
896 610
897 610
898 610
899 610
900 610
901 610
902 610
903 610
904 610
905 610
906 610
907 610
908 610
909 610
910 610
911 610
912 610
913 610
914 610
915 610
916 610
917 610
918 610
919 610
920 610
921 610
922 610
923 610
924 610
925 610
926 610
927 610
928 610
929 610
930 610
931 610
932 610
933 610
858 611
859 611
860 611
861 611
862 611
863 611
864 611
865 611
866 611
867 611
868 611
869 611
870 611
871 611
872 611
873 611
874 611
875 611
876 611
877 611
878 611
879 611
880 611
881 611
882 611
883 611
884 611
885 611
886 611
887 611
888 611
889 611
890 611
891 611
892 611
893 611
894 611
895 611
896 611
897 611
898 611
899 611
900 611
901 611
902 611
903 611
904 611
905 611
906 611
907 611
908 611
909 611
910 611
911 611
912 611
913 611
914 611
915 611
916 611
917 611
918 611
919 611
920 611
921 611
922 611
923 611
924 611
925 611
926 611
927 611
928 611
929 611
930 611
931 611
932 611
933 611
858 612
859 612
860 612
861 612
862 612
863 612
864 612
865 612
866 612
867 612
868 612
869 612
870 612
871 612
872 612
873 612
874 612
875 612
876 612
877 612
878 612
879 612
880 612
881 612
882 612
883 612
884 612
885 612
886 612
887 612
888 612
889 612
890 612
891 612
892 612
893 612
894 612
895 612
896 612
897 612
898 612
899 612
900 612
901 612
902 612
903 612
904 612
905 612
906 612
907 612
908 612
909 612
910 612
911 612
912 612
913 612
914 612
915 612
916 612
917 612
918 612
919 612
920 612
921 612
922 612
923 612
924 612
925 612
926 612
927 612
928 612
929 612
930 612
931 612
932 612
933 612
858 613
859 613
860 613
861 613
862 613
863 613
864 613
865 613
866 613
867 613
868 613
869 613
870 613
871 613
872 613
873 613
874 613
875 613
876 613
877 613
878 613
879 613
880 613
881 613
882 613
883 613
884 613
885 613
886 613
887 613
888 613
889 613
890 613
891 613
892 613
893 613
894 613
895 613
896 613
897 613
898 613
899 613
900 613
901 613
902 613
903 613
904 613
905 613
906 613
907 613
908 613
909 613
910 613
911 613
912 613
913 613
914 613
915 613
916 613
917 613
918 613
919 613
920 613
921 613
922 613
923 613
924 613
925 613
926 613
927 613
928 613
929 613
930 613
931 613
932 613
933 613
858 614
859 614
860 614
861 614
862 614
863 614
864 614
865 614
866 614
867 614
868 614
869 614
870 614
871 614
872 614
873 614
874 614
875 614
876 614
877 614
878 614
879 614
880 614
881 614
882 614
883 614
884 614
885 614
886 614
887 614
888 614
889 614
890 614
891 614
892 614
893 614
894 614
895 614
896 614
897 614
898 614
899 614
900 614
901 614
902 614
903 614
904 614
905 614
906 614
907 614
908 614
909 614
910 614
911 614
912 614
913 614
914 614
915 614
916 614
917 614
918 614
919 614
920 614
921 614
922 614
923 614
924 614
925 614
926 614
927 614
928 614
929 614
930 614
931 614
932 614
933 614
858 615
859 615
860 615
861 615
862 615
863 615
864 615
865 615
866 615
867 615
868 615
869 615
870 615
871 615
872 615
873 615
874 615
875 615
876 615
877 615
878 615
879 615
880 615
881 615
882 615
883 615
884 615
885 615
886 615
887 615
888 615
889 615
890 615
891 615
892 615
893 615
894 615
895 615
896 615
897 615
898 615
899 615
900 615
901 615
902 615
903 615
904 615
905 615
906 615
907 615
908 615
909 615
910 615
911 615
912 615
913 615
914 615
915 615
916 615
917 615
918 615
919 615
920 615
921 615
922 615
923 615
924 615
925 615
926 615
927 615
928 615
929 615
930 615
931 615
932 615
933 615
978 660
979 660
980 660
981 660
982 660
983 660
984 660
985 660
986 660
987 660
988 660
989 660
990 660
991 660
992 660
993 660
994 660
995 660
996 660
997 660
998 660
999 660
1000 660
1001 660
1002 660
1003 660
1004 660
1005 660
1006 660
1007 660
1008 660
1009 660
1010 660
1011 660
1012 660
1013 660
1014 660
1015 660
1016 660
1017 660
1018 660
1019 660
1020 660
1021 660
1022 660
1023 660
1024 660
1025 660
1026 660
1027 660
1028 660
1029 660
1030 660
1031 660
1032 660
1033 660
1034 660
1035 660
1036 660
1037 660
1038 660
1039 660
1040 660
1041 660
1042 660
1043 660
1044 660
1045 660
1046 660
1047 660
1048 660
1049 660
1050 660
1051 660
1052 660
1053 660
978 661
979 661
980 661
981 661
982 661
983 661
984 661
985 661
986 661
987 661
988 661
989 661
990 661
991 661
992 661
993 661
994 661
995 661
996 661
997 661
998 661
999 661
1000 661
1001 661
1002 661
1003 661
1004 661
1005 661
1006 661
1007 661
1008 661
1009 661
1010 661
1011 661
1012 661
1013 661
1014 661
1015 661
1016 661
1017 661
1018 661
1019 661
1020 661
1021 661
1022 661
1023 661
1024 661
1025 661
1026 661
1027 661
1028 661
1029 661
1030 661
1031 661
1032 661
1033 661
1034 661
1035 661
1036 661
1037 661
1038 661
1039 661
1040 661
1041 661
1042 661
1043 661
1044 661
1045 661
1046 661
1047 661
1048 661
1049 661
1050 661
1051 661
1052 661
1053 661
978 662
979 662
980 662
981 662
982 662
983 662
984 662
985 662
986 662
987 662
988 662
989 662
990 662
991 662
992 662
993 662
994 662
995 662
996 662
997 662
998 662
999 662
1000 662
1001 662
1002 662
1003 662
1004 662
1005 662
1006 662
1007 662
1008 662
1009 662
1010 662
1011 662
1012 662
1013 662
1014 662
1015 662
1016 662
1017 662
1018 662
1019 662
1020 662
1021 662
1022 662
1023 662
1024 662
1025 662
1026 662
1027 662
1028 662
1029 662
1030 662
1031 662
1032 662
1033 662
1034 662
1035 662
1036 662
1037 662
1038 662
1039 662
1040 662
1041 662
1042 662
1043 662
1044 662
1045 662
1046 662
1047 662
1048 662
1049 662
1050 662
1051 662
1052 662
1053 662
978 663
979 663
980 663
981 663
982 663
983 663
984 663
985 663
986 663
987 663
988 663
989 663
990 663
991 663
992 663
993 663
994 663
995 663
996 663
997 663
998 663
999 663
1000 663
1001 663
1002 663
1003 663
1004 663
1005 663
1006 663
1007 663
1008 663
1009 663
1010 663
1011 663
1012 663
1013 663
1014 663
1015 663
1016 663
1017 663
1018 663
1019 663
1020 663
1021 663
1022 663
1023 663
1024 663
1025 663
1026 663
1027 663
1028 663
1029 663
1030 663
1031 663
1032 663
1033 663
1034 663
1035 663
1036 663
1037 663
1038 663
1039 663
1040 663
1041 663
1042 663
1043 663
1044 663
1045 663
1046 663
1047 663
1048 663
1049 663
1050 663
1051 663
1052 663
1053 663
978 664
979 664
980 664
981 664
982 664
983 664
984 664
985 664
986 664
987 664
988 664
989 664
990 664
991 664
992 664
993 664
994 664
995 664
996 664
997 664
998 664
999 664
1000 664
1001 664
1002 664
1003 664
1004 664
1005 664
1006 664
1007 664
1008 664
1009 664
1010 664
1011 664
1012 664
1013 664
1014 664
1015 664
1016 664
1017 664
1018 664
1019 664
1020 664
1021 664
1022 664
1023 664
1024 664
1025 664
1026 664
1027 664
1028 664
1029 664
1030 664
1031 664
1032 664
1033 664
1034 664
1035 664
1036 664
1037 664
1038 664
1039 664
1040 664
1041 664
1042 664
1043 664
1044 664
1045 664
1046 664
1047 664
1048 664
1049 664
1050 664
1051 664
1052 664
1053 664
978 665
979 665
980 665
981 665
982 665
983 665
984 665
985 665
986 665
987 665
988 665
989 665
990 665
991 665
992 665
993 665
994 665
995 665
996 665
997 665
998 665
999 665
1000 665
1001 665
1002 665
1003 665
1004 665
1005 665
1006 665
1007 665
1008 665
1009 665
1010 665
1011 665
1012 665
1013 665
1014 665
1015 665
1016 665
1017 665
1018 665
1019 665
1020 665
1021 665
1022 665
1023 665
1024 665
1025 665
1026 665
1027 665
1028 665
1029 665
1030 665
1031 665
1032 665
1033 665
1034 665
1035 665
1036 665
1037 665
1038 665
1039 665
1040 665
1041 665
1042 665
1043 665
1044 665
1045 665
1046 665
1047 665
1048 665
1049 665
1050 665
1051 665
1052 665
1053 665
978 666
979 666
980 666
981 666
982 666
983 666
984 666
985 666
986 666
987 666
988 666
989 666
990 666
991 666
992 666
993 666
994 666
995 666
996 666
997 666
998 666
999 666
1000 666
1001 666
1002 666
1003 666
1004 666
1005 666
1006 666
1007 666
1008 666
1009 666
1010 666
1011 666
1012 666
1013 666
1014 666
1015 666
1016 666
1017 666
1018 666
1019 666
1020 666
1021 666
1022 666
1023 666
1024 666
1025 666
1026 666
1027 666
1028 666
1029 666
1030 666
1031 666
1032 666
1033 666
1034 666
1035 666
1036 666
1037 666
1038 666
1039 666
1040 666
1041 666
1042 666
1043 666
1044 666
1045 666
1046 666
1047 666
1048 666
1049 666
1050 666
1051 666
1052 666
1053 666
978 667
979 667
980 667
981 667
982 667
983 667
984 667
985 667
986 667
987 667
988 667
989 667
990 667
991 667
992 667
993 667
994 667
995 667
996 667
997 667
998 667
999 667
1000 667
1001 667
1002 667
1003 667
1004 667
1005 667
1006 667
1007 667
1008 667
1009 667
1010 667
1011 667
1012 667
1013 667
1014 667
1015 667
1016 667
1017 667
1018 667
1019 667
1020 667
1021 667
1022 667
1023 667
1024 667
1025 667
1026 667
1027 667
1028 667
1029 667
1030 667
1031 667
1032 667
1033 667
1034 667
1035 667
1036 667
1037 667
1038 667
1039 667
1040 667
1041 667
1042 667
1043 667
1044 667
1045 667
1046 667
1047 667
1048 667
1049 667
1050 667
1051 667
1052 667
1053 667
978 668
979 668
980 668
981 668
982 668
983 668
984 668
985 668
986 668
987 668
988 668
989 668
990 668
991 668
992 668
993 668
994 668
995 668
996 668
997 668
998 668
999 668
1000 668
1001 668
1002 668
1003 668
1004 668
1005 668
1006 668
1007 668
1008 668
1009 668
1010 668
1011 668
1012 668
1013 668
1014 668
1015 668
1016 668
1017 668
1018 668
1019 668
1020 668
1021 668
1022 668
1023 668
1024 668
1025 668
1026 668
1027 668
1028 668
1029 668
1030 668
1031 668
1032 668
1033 668
1034 668
1035 668
1036 668
1037 668
1038 668
1039 668
1040 668
1041 668
1042 668
1043 668
1044 668
1045 668
1046 668
1047 668
1048 668
1049 668
1050 668
1051 668
1052 668
1053 668
978 669
979 669
980 669
981 669
982 669
983 669
984 669
985 669
986 669
987 669
988 669
989 669
990 669
991 669
992 669
993 669
994 669
995 669
996 669
997 669
998 669
999 669
1000 669
1001 669
1002 669
1003 669
1004 669
1005 669
1006 669
1007 669
1008 669
1009 669
1010 669
1011 669
1012 669
1013 669
1014 669
1015 669
1016 669
1017 669
1018 669
1019 669
1020 669
1021 669
1022 669
1023 669
1024 669
1025 669
1026 669
1027 669
1028 669
1029 669
1030 669
1031 669
1032 669
1033 669
1034 669
1035 669
1036 669
1037 669
1038 669
1039 669
1040 669
1041 669
1042 669
1043 669
1044 669
1045 669
1046 669
1047 669
1048 669
1049 669
1050 669
1051 669
1052 669
1053 669
978 670
979 670
980 670
981 670
982 670
983 670
984 670
985 670
986 670
987 670
988 670
989 670
990 670
991 670
992 670
993 670
994 670
995 670
996 670
997 670
998 670
999 670
1000 670
1001 670
1002 670
1003 670
1004 670
1005 670
1006 670
1007 670
1008 670
1009 670
1010 670
1011 670
1012 670
1013 670
1014 670
1015 670
1016 670
1017 670
1018 670
1019 670
1020 670
1021 670
1022 670
1023 670
1024 670
1025 670
1026 670
1027 670
1028 670
1029 670
1030 670
1031 670
1032 670
1033 670
1034 670
1035 670
1036 670
1037 670
1038 670
1039 670
1040 670
1041 670
1042 670
1043 670
1044 670
1045 670
1046 670
1047 670
1048 670
1049 670
1050 670
1051 670
1052 670
1053 670
978 671
979 671
980 671
981 671
982 671
983 671
984 671
985 671
986 671
987 671
988 671
989 671
990 671
991 671
992 671
993 671
994 671
995 671
996 671
997 671
998 671
999 671
1000 671
1001 671
1002 671
1003 671
1004 671
1005 671
1006 671
1007 671
1008 671
1009 671
1010 671
1011 671
1012 671
1013 671
1014 671
1015 671
1016 671
1017 671
1018 671
1019 671
1020 671
1021 671
1022 671
1023 671
1024 671
1025 671
1026 671
1027 671
1028 671
1029 671
1030 671
1031 671
1032 671
1033 671
1034 671
1035 671
1036 671
1037 671
1038 671
1039 671
1040 671
1041 671
1042 671
1043 671
1044 671
1045 671
1046 671
1047 671
1048 671
1049 671
1050 671
1051 671
1052 671
1053 671
978 672
979 672
980 672
981 672
982 672
983 672
984 672
985 672
986 672
987 672
988 672
989 672
990 672
991 672
992 672
993 672
994 672
995 672
996 672
997 672
998 672
999 672
1000 672
1001 672
1002 672
1003 672
1004 672
1005 672
1006 672
1007 672
1008 672
1009 672
1010 672
1011 672
1012 672
1013 672
1014 672
1015 672
1016 672
1017 672
1018 672
1019 672
1020 672
1021 672
1022 672
1023 672
1024 672
1025 672
1026 672
1027 672
1028 672
1029 672
1030 672
1031 672
1032 672
1033 672
1034 672
1035 672
1036 672
1037 672
1038 672
1039 672
1040 672
1041 672
1042 672
1043 672
1044 672
1045 672
1046 672
1047 672
1048 672
1049 672
1050 672
1051 672
1052 672
1053 672
978 673
979 673
980 673
981 673
982 673
983 673
984 673
985 673
986 673
987 673
988 673
989 673
990 673
991 673
992 673
993 673
994 673
995 673
996 673
997 673
998 673
999 673
1000 673
1001 673
1002 673
1003 673
1004 673
1005 673
1006 673
1007 673
1008 673
1009 673
1010 673
1011 673
1012 673
1013 673
1014 673
1015 673
1016 673
1017 673
1018 673
1019 673
1020 673
1021 673
1022 673
1023 673
1024 673
1025 673
1026 673
1027 673
1028 673
1029 673
1030 673
1031 673
1032 673
1033 673
1034 673
1035 673
1036 673
1037 673
1038 673
1039 673
1040 673
1041 673
1042 673
1043 673
1044 673
1045 673
1046 673
1047 673
1048 673
1049 673
1050 673
1051 673
1052 673
1053 673
978 674
979 674
980 674
981 674
982 674
983 674
984 674
985 674
986 674
987 674
988 674
989 674
990 674
991 674
992 674
993 674
994 674
995 674
996 674
997 674
998 674
999 674
1000 674
1001 674
1002 674
1003 674
1004 674
1005 674
1006 674
1007 674
1008 674
1009 674
1010 674
1011 674
1012 674
1013 674
1014 674
1015 674
1016 674
1017 674
1018 674
1019 674
1020 674
1021 674
1022 674
1023 674
1024 674
1025 674
1026 674
1027 674
1028 674
1029 674
1030 674
1031 674
1032 674
1033 674
1034 674
1035 674
1036 674
1037 674
1038 674
1039 674
1040 674
1041 674
1042 674
1043 674
1044 674
1045 674
1046 674
1047 674
1048 674
1049 674
1050 674
1051 674
1052 674
1053 674
978 675
979 675
980 675
981 675
982 675
983 675
984 675
985 675
986 675
987 675
988 675
989 675
990 675
991 675
992 675
993 675
994 675
995 675
996 675
997 675
998 675
999 675
1000 675
1001 675
1002 675
1003 675
1004 675
1005 675
1006 675
1007 675
1008 675
1009 675
1010 675
1011 675
1012 675
1013 675
1014 675
1015 675
1016 675
1017 675
1018 675
1019 675
1020 675
1021 675
1022 675
1023 675
1024 675
1025 675
1026 675
1027 675
1028 675
1029 675
1030 675
1031 675
1032 675
1033 675
1034 675
1035 675
1036 675
1037 675
1038 675
1039 675
1040 675
1041 675
1042 675
1043 675
1044 675
1045 675
1046 675
1047 675
1048 675
1049 675
1050 675
1051 675
1052 675
1053 675
978 676
979 676
980 676
981 676
982 676
983 676
984 676
985 676
986 676
987 676
988 676
989 676
990 676
991 676
992 676
993 676
994 676
995 676
996 676
997 676
998 676
999 676
1000 676
1001 676
1002 676
1003 676
1004 676
1005 676
1006 676
1007 676
1008 676
1009 676
1010 676
1011 676
1012 676
1013 676
1014 676
1015 676
1016 676
1017 676
1018 676
1019 676
1020 676
1021 676
1022 676
1023 676
1024 676
1025 676
1026 676
1027 676
1028 676
1029 676
1030 676
1031 676
1032 676
1033 676
1034 676
1035 676
1036 676
1037 676
1038 676
1039 676
1040 676
1041 676
1042 676
1043 676
1044 676
1045 676
1046 676
1047 676
1048 676
1049 676
1050 676
1051 676
1052 676
1053 676
978 677
979 677
980 677
981 677
982 677
983 677
984 677
985 677
986 677
987 677
988 677
989 677
990 677
991 677
992 677
993 677
994 677
995 677
996 677
997 677
998 677
999 677
1000 677
1001 677
1002 677
1003 677
1004 677
1005 677
1006 677
1007 677
1008 677
1009 677
1010 677
1011 677
1012 677
1013 677
1014 677
1015 677
1016 677
1017 677
1018 677
1019 677
1020 677
1021 677
1022 677
1023 677
1024 677
1025 677
1026 677
1027 677
1028 677
1029 677
1030 677
1031 677
1032 677
1033 677
1034 677
1035 677
1036 677
1037 677
1038 677
1039 677
1040 677
1041 677
1042 677
1043 677
1044 677
1045 677
1046 677
1047 677
1048 677
1049 677
1050 677
1051 677
1052 677
1053 677
978 678
979 678
980 678
981 678
982 678
983 678
984 678
985 678
986 678
987 678
988 678
989 678
990 678
991 678
992 678
993 678
994 678
995 678
996 678
997 678
998 678
999 678
1000 678
1001 678
1002 678
1003 678
1004 678
1005 678
1006 678
1007 678
1008 678
1009 678
1010 678
1011 678
1012 678
1013 678
1014 678
1015 678
1016 678
1017 678
1018 678
1019 678
1020 678
1021 678
1022 678
1023 678
1024 678
1025 678
1026 678
1027 678
1028 678
1029 678
1030 678
1031 678
1032 678
1033 678
1034 678
1035 678
1036 678
1037 678
1038 678
1039 678
1040 678
1041 678
1042 678
1043 678
1044 678
1045 678
1046 678
1047 678
1048 678
1049 678
1050 678
1051 678
1052 678
1053 678
978 679
979 679
980 679
981 679
982 679
983 679
984 679
985 679
986 679
987 679
988 679
989 679
990 679
991 679
992 679
993 679
994 679
995 679
996 679
997 679
998 679
999 679
1000 679
1001 679
1002 679
1003 679
1004 679
1005 679
1006 679
1007 679
1008 679
1009 679
1010 679
1011 679
1012 679
1013 679
1014 679
1015 679
1016 679
1017 679
1018 679
1019 679
1020 679
1021 679
1022 679
1023 679
1024 679
1025 679
1026 679
1027 679
1028 679
1029 679
1030 679
1031 679
1032 679
1033 679
1034 679
1035 679
1036 679
1037 679
1038 679
1039 679
1040 679
1041 679
1042 679
1043 679
1044 679
1045 679
1046 679
1047 679
1048 679
1049 679
1050 679
1051 679
1052 679
1053 679
978 680
979 680
980 680
981 680
982 680
983 680
984 680
985 680
986 680
987 680
988 680
989 680
990 680
991 680
992 680
993 680
994 680
995 680
996 680
997 680
998 680
999 680
1000 680
1001 680
1002 680
1003 680
1004 680
1005 680
1006 680
1007 680
1008 680
1009 680
1010 680
1011 680
1012 680
1013 680
1014 680
1015 680
1016 680
1017 680
1018 680
1019 680
1020 680
1021 680
1022 680
1023 680
1024 680
1025 680
1026 680
1027 680
1028 680
1029 680
1030 680
1031 680
1032 680
1033 680
1034 680
1035 680
1036 680
1037 680
1038 680
1039 680
1040 680
1041 680
1042 680
1043 680
1044 680
1045 680
1046 680
1047 680
1048 680
1049 680
1050 680
1051 680
1052 680
1053 680
978 681
979 681
980 681
981 681
982 681
983 681
984 681
985 681
986 681
987 681
988 681
989 681
990 681
991 681
992 681
993 681
994 681
995 681
996 681
997 681
998 681
999 681
1000 681
1001 681
1002 681
1003 681
1004 681
1005 681
1006 681
1007 681
1008 681
1009 681
1010 681
1011 681
1012 681
1013 681
1014 681
1015 681
1016 681
1017 681
1018 681
1019 681
1020 681
1021 681
1022 681
1023 681
1024 681
1025 681
1026 681
1027 681
1028 681
1029 681
1030 681
1031 681
1032 681
1033 681
1034 681
1035 681
1036 681
1037 681
1038 681
1039 681
1040 681
1041 681
1042 681
1043 681
1044 681
1045 681
1046 681
1047 681
1048 681
1049 681
1050 681
1051 681
1052 681
1053 681
978 682
979 682
980 682
981 682
982 682
983 682
984 682
985 682
986 682
987 682
988 682
989 682
990 682
991 682
992 682
993 682
994 682
995 682
996 682
997 682
998 682
999 682
1000 682
1001 682
1002 682
1003 682
1004 682
1005 682
1006 682
1007 682
1008 682
1009 682
1010 682
1011 682
1012 682
1013 682
1014 682
1015 682
1016 682
1017 682
1018 682
1019 682
1020 682
1021 682
1022 682
1023 682
1024 682
1025 682
1026 682
1027 682
1028 682
1029 682
1030 682
1031 682
1032 682
1033 682
1034 682
1035 682
1036 682
1037 682
1038 682
1039 682
1040 682
1041 682
1042 682
1043 682
1044 682
1045 682
1046 682
1047 682
1048 682
1049 682
1050 682
1051 682
1052 682
1053 682
978 683
979 683
980 683
981 683
982 683
983 683
984 683
985 683
986 683
987 683
988 683
989 683
990 683
991 683
992 683
993 683
994 683
995 683
996 683
997 683
998 683
999 683
1000 683
1001 683
1002 683
1003 683
1004 683
1005 683
1006 683
1007 683
1008 683
1009 683
1010 683
1011 683
1012 683
1013 683
1014 683
1015 683
1016 683
1017 683
1018 683
1019 683
1020 683
1021 683
1022 683
1023 683
1024 683
1025 683
1026 683
1027 683
1028 683
1029 683
1030 683
1031 683
1032 683
1033 683
1034 683
1035 683
1036 683
1037 683
1038 683
1039 683
1040 683
1041 683
1042 683
1043 683
1044 683
1045 683
1046 683
1047 683
1048 683
1049 683
1050 683
1051 683
1052 683
1053 683
978 684
979 684
980 684
981 684
982 684
983 684
984 684
985 684
986 684
987 684
988 684
989 684
990 684
991 684
992 684
993 684
994 684
995 684
996 684
997 684
998 684
999 684
1000 684
1001 684
1002 684
1003 684
1004 684
1005 684
1006 684
1007 684
1008 684
1009 684
1010 684
1011 684
1012 684
1013 684
1014 684
1015 684
1016 684
1017 684
1018 684
1019 684
1020 684
1021 684
1022 684
1023 684
1024 684
1025 684
1026 684
1027 684
1028 684
1029 684
1030 684
1031 684
1032 684
1033 684
1034 684
1035 684
1036 684
1037 684
1038 684
1039 684
1040 684
1041 684
1042 684
1043 684
1044 684
1045 684
1046 684
1047 684
1048 684
1049 684
1050 684
1051 684
1052 684
1053 684
978 685
979 685
980 685
981 685
982 685
983 685
984 685
985 685
986 685
987 685
988 685
989 685
990 685
991 685
992 685
993 685
994 685
995 685
996 685
997 685
998 685
999 685
1000 685
1001 685
1002 685
1003 685
1004 685
1005 685
1006 685
1007 685
1008 685
1009 685
1010 685
1011 685
1012 685
1013 685
1014 685
1015 685
1016 685
1017 685
1018 685
1019 685
1020 685
1021 685
1022 685
1023 685
1024 685
1025 685
1026 685
1027 685
1028 685
1029 685
1030 685
1031 685
1032 685
1033 685
1034 685
1035 685
1036 685
1037 685
1038 685
1039 685
1040 685
1041 685
1042 685
1043 685
1044 685
1045 685
1046 685
1047 685
1048 685
1049 685
1050 685
1051 685
1052 685
1053 685
978 686
979 686
980 686
981 686
982 686
983 686
984 686
985 686
986 686
987 686
988 686
989 686
990 686
991 686
992 686
993 686
994 686
995 686
996 686
997 686
998 686
999 686
1000 686
1001 686
1002 686
1003 686
1004 686
1005 686
1006 686
1007 686
1008 686
1009 686
1010 686
1011 686
1012 686
1013 686
1014 686
1015 686
1016 686
1017 686
1018 686
1019 686
1020 686
1021 686
1022 686
1023 686
1024 686
1025 686
1026 686
1027 686
1028 686
1029 686
1030 686
1031 686
1032 686
1033 686
1034 686
1035 686
1036 686
1037 686
1038 686
1039 686
1040 686
1041 686
1042 686
1043 686
1044 686
1045 686
1046 686
1047 686
1048 686
1049 686
1050 686
1051 686
1052 686
1053 686
978 687
979 687
980 687
981 687
982 687
983 687
984 687
985 687
986 687
987 687
988 687
989 687
990 687
991 687
992 687
993 687
994 687
995 687
996 687
997 687
998 687
999 687
1000 687
1001 687
1002 687
1003 687
1004 687
1005 687
1006 687
1007 687
1008 687
1009 687
1010 687
1011 687
1012 687
1013 687
1014 687
1015 687
1016 687
1017 687
1018 687
1019 687
1020 687
1021 687
1022 687
1023 687
1024 687
1025 687
1026 687
1027 687
1028 687
1029 687
1030 687
1031 687
1032 687
1033 687
1034 687
1035 687
1036 687
1037 687
1038 687
1039 687
1040 687
1041 687
1042 687
1043 687
1044 687
1045 687
1046 687
1047 687
1048 687
1049 687
1050 687
1051 687
1052 687
1053 687
978 688
979 688
980 688
981 688
982 688
983 688
984 688
985 688
986 688
987 688
988 688
989 688
990 688
991 688
992 688
993 688
994 688
995 688
996 688
997 688
998 688
999 688
1000 688
1001 688
1002 688
1003 688
1004 688
1005 688
1006 688
1007 688
1008 688
1009 688
1010 688
1011 688
1012 688
1013 688
1014 688
1015 688
1016 688
1017 688
1018 688
1019 688
1020 688
1021 688
1022 688
1023 688
1024 688
1025 688
1026 688
1027 688
1028 688
1029 688
1030 688
1031 688
1032 688
1033 688
1034 688
1035 688
1036 688
1037 688
1038 688
1039 688
1040 688
1041 688
1042 688
1043 688
1044 688
1045 688
1046 688
1047 688
1048 688
1049 688
1050 688
1051 688
1052 688
1053 688
978 689
979 689
980 689
981 689
982 689
983 689
984 689
985 689
986 689
987 689
988 689
989 689
990 689
991 689
992 689
993 689
994 689
995 689
996 689
997 689
998 689
999 689
1000 689
1001 689
1002 689
1003 689
1004 689
1005 689
1006 689
1007 689
1008 689
1009 689
1010 689
1011 689
1012 689
1013 689
1014 689
1015 689
1016 689
1017 689
1018 689
1019 689
1020 689
1021 689
1022 689
1023 689
1024 689
1025 689
1026 689
1027 689
1028 689
1029 689
1030 689
1031 689
1032 689
1033 689
1034 689
1035 689
1036 689
1037 689
1038 689
1039 689
1040 689
1041 689
1042 689
1043 689
1044 689
1045 689
1046 689
1047 689
1048 689
1049 689
1050 689
1051 689
1052 689
1053 689
978 690
979 690
980 690
981 690
982 690
983 690
984 690
985 690
986 690
987 690
988 690
989 690
990 690
991 690
992 690
993 690
994 690
995 690
996 690
997 690
998 690
999 690
1000 690
1001 690
1002 690
1003 690
1004 690
1005 690
1006 690
1007 690
1008 690
1009 690
1010 690
1011 690
1012 690
1013 690
1014 690
1015 690
1016 690
1017 690
1018 690
1019 690
1020 690
1021 690
1022 690
1023 690
1024 690
1025 690
1026 690
1027 690
1028 690
1029 690
1030 690
1031 690
1032 690
1033 690
1034 690
1035 690
1036 690
1037 690
1038 690
1039 690
1040 690
1041 690
1042 690
1043 690
1044 690
1045 690
1046 690
1047 690
1048 690
1049 690
1050 690
1051 690
1052 690
1053 690
978 691
979 691
980 691
981 691
982 691
983 691
984 691
985 691
986 691
987 691
988 691
989 691
990 691
991 691
992 691
993 691
994 691
995 691
996 691
997 691
998 691
999 691
1000 691
1001 691
1002 691
1003 691
1004 691
1005 691
1006 691
1007 691
1008 691
1009 691
1010 691
1011 691
1012 691
1013 691
1014 691
1015 691
1016 691
1017 691
1018 691
1019 691
1020 691
1021 691
1022 691
1023 691
1024 691
1025 691
1026 691
1027 691
1028 691
1029 691
1030 691
1031 691
1032 691
1033 691
1034 691
1035 691
1036 691
1037 691
1038 691
1039 691
1040 691
1041 691
1042 691
1043 691
1044 691
1045 691
1046 691
1047 691
1048 691
1049 691
1050 691
1051 691
1052 691
1053 691
978 692
979 692
980 692
981 692
982 692
983 692
984 692
985 692
986 692
987 692
988 692
989 692
990 692
991 692
992 692
993 692
994 692
995 692
996 692
997 692
998 692
999 692
1000 692
1001 692
1002 692
1003 692
1004 692
1005 692
1006 692
1007 692
1008 692
1009 692
1010 692
1011 692
1012 692
1013 692
1014 692
1015 692
1016 692
1017 692
1018 692
1019 692
1020 692
1021 692
1022 692
1023 692
1024 692
1025 692
1026 692
1027 692
1028 692
1029 692
1030 692
1031 692
1032 692
1033 692
1034 692
1035 692
1036 692
1037 692
1038 692
1039 692
1040 692
1041 692
1042 692
1043 692
1044 692
1045 692
1046 692
1047 692
1048 692
1049 692
1050 692
1051 692
1052 692
1053 692
978 693
979 693
980 693
981 693
982 693
983 693
984 693
985 693
986 693
987 693
988 693
989 693
990 693
991 693
992 693
993 693
994 693
995 693
996 693
997 693
998 693
999 693
1000 693
1001 693
1002 693
1003 693
1004 693
1005 693
1006 693
1007 693
1008 693
1009 693
1010 693
1011 693
1012 693
1013 693
1014 693
1015 693
1016 693
1017 693
1018 693
1019 693
1020 693
1021 693
1022 693
1023 693
1024 693
1025 693
1026 693
1027 693
1028 693
1029 693
1030 693
1031 693
1032 693
1033 693
1034 693
1035 693
1036 693
1037 693
1038 693
1039 693
1040 693
1041 693
1042 693
1043 693
1044 693
1045 693
1046 693
1047 693
1048 693
1049 693
1050 693
1051 693
1052 693
1053 693
978 694
979 694
980 694
981 694
982 694
983 694
984 694
985 694
986 694
987 694
988 694
989 694
990 694
991 694
992 694
993 694
994 694
995 694
996 694
997 694
998 694
999 694
1000 694
1001 694
1002 694
1003 694
1004 694
1005 694
1006 694
1007 694
1008 694
1009 694
1010 694
1011 694
1012 694
1013 694
1014 694
1015 694
1016 694
1017 694
1018 694
1019 694
1020 694
1021 694
1022 694
1023 694
1024 694
1025 694
1026 694
1027 694
1028 694
1029 694
1030 694
1031 694
1032 694
1033 694
1034 694
1035 694
1036 694
1037 694
1038 694
1039 694
1040 694
1041 694
1042 694
1043 694
1044 694
1045 694
1046 694
1047 694
1048 694
1049 694
1050 694
1051 694
1052 694
1053 694
978 695
979 695
980 695
981 695
982 695
983 695
984 695
985 695
986 695
987 695
988 695
989 695
990 695
991 695
992 695
993 695
994 695
995 695
996 695
997 695
998 695
999 695
1000 695
1001 695
1002 695
1003 695
1004 695
1005 695
1006 695
1007 695
1008 695
1009 695
1010 695
1011 695
1012 695
1013 695
1014 695
1015 695
1016 695
1017 695
1018 695
1019 695
1020 695
1021 695
1022 695
1023 695
1024 695
1025 695
1026 695
1027 695
1028 695
1029 695
1030 695
1031 695
1032 695
1033 695
1034 695
1035 695
1036 695
1037 695
1038 695
1039 695
1040 695
1041 695
1042 695
1043 695
1044 695
1045 695
1046 695
1047 695
1048 695
1049 695
1050 695
1051 695
1052 695
1053 695
978 696
979 696
980 696
981 696
982 696
983 696
984 696
985 696
986 696
987 696
988 696
989 696
990 696
991 696
992 696
993 696
994 696
995 696
996 696
997 696
998 696
999 696
1000 696
1001 696
1002 696
1003 696
1004 696
1005 696
1006 696
1007 696
1008 696
1009 696
1010 696
1011 696
1012 696
1013 696
1014 696
1015 696
1016 696
1017 696
1018 696
1019 696
1020 696
1021 696
1022 696
1023 696
1024 696
1025 696
1026 696
1027 696
1028 696
1029 696
1030 696
1031 696
1032 696
1033 696
1034 696
1035 696
1036 696
1037 696
1038 696
1039 696
1040 696
1041 696
1042 696
1043 696
1044 696
1045 696
1046 696
1047 696
1048 696
1049 696
1050 696
1051 696
1052 696
1053 696
1098 741
1099 741
1100 741
1101 741
1102 741
1103 741
1104 741
1105 741
1106 741
1107 741
1108 741
1109 741
1110 741
1111 741
1112 741
1113 741
1114 741
1115 741
1116 741
1117 741
1118 741
1119 741
1120 741
1121 741
1122 741
1123 741
1124 741
1125 741
1126 741
1127 741
1128 741
1129 741
1130 741
1131 741
1132 741
1133 741
1134 741
1135 741
1136 741
1137 741
1138 741
1139 741
1140 741
1141 741
1142 741
1143 741
1144 741
1145 741
1146 741
1147 741
1148 741
1149 741
1150 741
1151 741
1152 741
1153 741
1154 741
1155 741
1156 741
1157 741
1158 741
1159 741
1160 741
1161 741
1162 741
1163 741
1164 741
1165 741
1166 741
1167 741
1168 741
1169 741
1170 741
1171 741
1172 741
1173 741
1098 742
1099 742
1100 742
1101 742
1102 742
1103 742
1104 742
1105 742
1106 742
1107 742
1108 742
1109 742
1110 742
1111 742
1112 742
1113 742
1114 742
1115 742
1116 742
1117 742
1118 742
1119 742
1120 742
1121 742
1122 742
1123 742
1124 742
1125 742
1126 742
1127 742
1128 742
1129 742
1130 742
1131 742
1132 742
1133 742
1134 742
1135 742
1136 742
1137 742
1138 742
1139 742
1140 742
1141 742
1142 742
1143 742
1144 742
1145 742
1146 742
1147 742
1148 742
1149 742
1150 742
1151 742
1152 742
1153 742
1154 742
1155 742
1156 742
1157 742
1158 742
1159 742
1160 742
1161 742
1162 742
1163 742
1164 742
1165 742
1166 742
1167 742
1168 742
1169 742
1170 742
1171 742
1172 742
1173 742
1098 743
1099 743
1100 743
1101 743
1102 743
1103 743
1104 743
1105 743
1106 743
1107 743
1108 743
1109 743
1110 743
1111 743
1112 743
1113 743
1114 743
1115 743
1116 743
1117 743
1118 743
1119 743
1120 743
1121 743
1122 743
1123 743
1124 743
1125 743
1126 743
1127 743
1128 743
1129 743
1130 743
1131 743
1132 743
1133 743
1134 743
1135 743
1136 743
1137 743
1138 743
1139 743
1140 743
1141 743
1142 743
1143 743
1144 743
1145 743
1146 743
1147 743
1148 743
1149 743
1150 743
1151 743
1152 743
1153 743
1154 743
1155 743
1156 743
1157 743
1158 743
1159 743
1160 743
1161 743
1162 743
1163 743
1164 743
1165 743
1166 743
1167 743
1168 743
1169 743
1170 743
1171 743
1172 743
1173 743
1098 744
1099 744
1100 744
1101 744
1102 744
1103 744
1104 744
1105 744
1106 744
1107 744
1108 744
1109 744
1110 744
1111 744
1112 744
1113 744
1114 744
1115 744
1116 744
1117 744
1118 744
1119 744
1120 744
1121 744
1122 744
1123 744
1124 744
1125 744
1126 744
1127 744
1128 744
1129 744
1130 744
1131 744
1132 744
1133 744
1134 744
1135 744
1136 744
1137 744
1138 744
1139 744
1140 744
1141 744
1142 744
1143 744
1144 744
1145 744
1146 744
1147 744
1148 744
1149 744
1150 744
1151 744
1152 744
1153 744
1154 744
1155 744
1156 744
1157 744
1158 744
1159 744
1160 744
1161 744
1162 744
1163 744
1164 744
1165 744
1166 744
1167 744
1168 744
1169 744
1170 744
1171 744
1172 744
1173 744
1098 745
1099 745
1100 745
1101 745
1102 745
1103 745
1104 745
1105 745
1106 745
1107 745
1108 745
1109 745
1110 745
1111 745
1112 745
1113 745
1114 745
1115 745
1116 745
1117 745
1118 745
1119 745
1120 745
1121 745
1122 745
1123 745
1124 745
1125 745
1126 745
1127 745
1128 745
1129 745
1130 745
1131 745
1132 745
1133 745
1134 745
1135 745
1136 745
1137 745
1138 745
1139 745
1140 745
1141 745
1142 745
1143 745
1144 745
1145 745
1146 745
1147 745
1148 745
1149 745
1150 745
1151 745
1152 745
1153 745
1154 745
1155 745
1156 745
1157 745
1158 745
1159 745
1160 745
1161 745
1162 745
1163 745
1164 745
1165 745
1166 745
1167 745
1168 745
1169 745
1170 745
1171 745
1172 745
1173 745
1098 746
1099 746
1100 746
1101 746
1102 746
1103 746
1104 746
1105 746
1106 746
1107 746
1108 746
1109 746
1110 746
1111 746
1112 746
1113 746
1114 746
1115 746
1116 746
1117 746
1118 746
1119 746
1120 746
1121 746
1122 746
1123 746
1124 746
1125 746
1126 746
1127 746
1128 746
1129 746
1130 746
1131 746
1132 746
1133 746
1134 746
1135 746
1136 746
1137 746
1138 746
1139 746
1140 746
1141 746
1142 746
1143 746
1144 746
1145 746
1146 746
1147 746
1148 746
1149 746
1150 746
1151 746
1152 746
1153 746
1154 746
1155 746
1156 746
1157 746
1158 746
1159 746
1160 746
1161 746
1162 746
1163 746
1164 746
1165 746
1166 746
1167 746
1168 746
1169 746
1170 746
1171 746
1172 746
1173 746
1098 747
1099 747
1100 747
1101 747
1102 747
1103 747
1104 747
1105 747
1106 747
1107 747
1108 747
1109 747
1110 747
1111 747
1112 747
1113 747
1114 747
1115 747
1116 747
1117 747
1118 747
1119 747
1120 747
1121 747
1122 747
1123 747
1124 747
1125 747
1126 747
1127 747
1128 747
1129 747
1130 747
1131 747
1132 747
1133 747
1134 747
1135 747
1136 747
1137 747
1138 747
1139 747
1140 747
1141 747
1142 747
1143 747
1144 747
1145 747
1146 747
1147 747
1148 747
1149 747
1150 747
1151 747
1152 747
1153 747
1154 747
1155 747
1156 747
1157 747
1158 747
1159 747
1160 747
1161 747
1162 747
1163 747
1164 747
1165 747
1166 747
1167 747
1168 747
1169 747
1170 747
1171 747
1172 747
1173 747
1098 748
1099 748
1100 748
1101 748
1102 748
1103 748
1104 748
1105 748
1106 748
1107 748
1108 748
1109 748
1110 748
1111 748
1112 748
1113 748
1114 748
1115 748
1116 748
1117 748
1118 748
1119 748
1120 748
1121 748
1122 748
1123 748
1124 748
1125 748
1126 748
1127 748
1128 748
1129 748
1130 748
1131 748
1132 748
1133 748
1134 748
1135 748
1136 748
1137 748
1138 748
1139 748
1140 748
1141 748
1142 748
1143 748
1144 748
1145 748
1146 748
1147 748
1148 748
1149 748
1150 748
1151 748
1152 748
1153 748
1154 748
1155 748
1156 748
1157 748
1158 748
1159 748
1160 748
1161 748
1162 748
1163 748
1164 748
1165 748
1166 748
1167 748
1168 748
1169 748
1170 748
1171 748
1172 748
1173 748
1098 749
1099 749
1100 749
1101 749
1102 749
1103 749
1104 749
1105 749
1106 749
1107 749
1108 749
1109 749
1110 749
1111 749
1112 749
1113 749
1114 749
1115 749
1116 749
1117 749
1118 749
1119 749
1120 749
1121 749
1122 749
1123 749
1124 749
1125 749
1126 749
1127 749
1128 749
1129 749
1130 749
1131 749
1132 749
1133 749
1134 749
1135 749
1136 749
1137 749
1138 749
1139 749
1140 749
1141 749
1142 749
1143 749
1144 749
1145 749
1146 749
1147 749
1148 749
1149 749
1150 749
1151 749
1152 749
1153 749
1154 749
1155 749
1156 749
1157 749
1158 749
1159 749
1160 749
1161 749
1162 749
1163 749
1164 749
1165 749
1166 749
1167 749
1168 749
1169 749
1170 749
1171 749
1172 749
1173 749
1098 750
1099 750
1100 750
1101 750
1102 750
1103 750
1104 750
1105 750
1106 750
1107 750
1108 750
1109 750
1110 750
1111 750
1112 750
1113 750
1114 750
1115 750
1116 750
1117 750
1118 750
1119 750
1120 750
1121 750
1122 750
1123 750
1124 750
1125 750
1126 750
1127 750
1128 750
1129 750
1130 750
1131 750
1132 750
1133 750
1134 750
1135 750
1136 750
1137 750
1138 750
1139 750
1140 750
1141 750
1142 750
1143 750
1144 750
1145 750
1146 750
1147 750
1148 750
1149 750
1150 750
1151 750
1152 750
1153 750
1154 750
1155 750
1156 750
1157 750
1158 750
1159 750
1160 750
1161 750
1162 750
1163 750
1164 750
1165 750
1166 750
1167 750
1168 750
1169 750
1170 750
1171 750
1172 750
1173 750
1098 751
1099 751
1100 751
1101 751
1102 751
1103 751
1104 751
1105 751
1106 751
1107 751
1108 751
1109 751
1110 751
1111 751
1112 751
1113 751
1114 751
1115 751
1116 751
1117 751
1118 751
1119 751
1120 751
1121 751
1122 751
1123 751
1124 751
1125 751
1126 751
1127 751
1128 751
1129 751
1130 751
1131 751
1132 751
1133 751
1134 751
1135 751
1136 751
1137 751
1138 751
1139 751
1140 751
1141 751
1142 751
1143 751
1144 751
1145 751
1146 751
1147 751
1148 751
1149 751
1150 751
1151 751
1152 751
1153 751
1154 751
1155 751
1156 751
1157 751
1158 751
1159 751
1160 751
1161 751
1162 751
1163 751
1164 751
1165 751
1166 751
1167 751
1168 751
1169 751
1170 751
1171 751
1172 751
1173 751
1098 752
1099 752
1100 752
1101 752
1102 752
1103 752
1104 752
1105 752
1106 752
1107 752
1108 752
1109 752
1110 752
1111 752
1112 752
1113 752
1114 752
1115 752
1116 752
1117 752
1118 752
1119 752
1120 752
1121 752
1122 752
1123 752
1124 752
1125 752
1126 752
1127 752
1128 752
1129 752
1130 752
1131 752
1132 752
1133 752
1134 752
1135 752
1136 752
1137 752
1138 752
1139 752
1140 752
1141 752
1142 752
1143 752
1144 752
1145 752
1146 752
1147 752
1148 752
1149 752
1150 752
1151 752
1152 752
1153 752
1154 752
1155 752
1156 752
1157 752
1158 752
1159 752
1160 752
1161 752
1162 752
1163 752
1164 752
1165 752
1166 752
1167 752
1168 752
1169 752
1170 752
1171 752
1172 752
1173 752
1098 753
1099 753
1100 753
1101 753
1102 753
1103 753
1104 753
1105 753
1106 753
1107 753
1108 753
1109 753
1110 753
1111 753
1112 753
1113 753
1114 753
1115 753
1116 753
1117 753
1118 753
1119 753
1120 753
1121 753
1122 753
1123 753
1124 753
1125 753
1126 753
1127 753
1128 753
1129 753
1130 753
1131 753
1132 753
1133 753
1134 753
1135 753
1136 753
1137 753
1138 753
1139 753
1140 753
1141 753
1142 753
1143 753
1144 753
1145 753
1146 753
1147 753
1148 753
1149 753
1150 753
1151 753
1152 753
1153 753
1154 753
1155 753
1156 753
1157 753
1158 753
1159 753
1160 753
1161 753
1162 753
1163 753
1164 753
1165 753
1166 753
1167 753
1168 753
1169 753
1170 753
1171 753
1172 753
1173 753
1098 754
1099 754
1100 754
1101 754
1102 754
1103 754
1104 754
1105 754
1106 754
1107 754
1108 754
1109 754
1110 754
1111 754
1112 754
1113 754
1114 754
1115 754
1116 754
1117 754
1118 754
1119 754
1120 754
1121 754
1122 754
1123 754
1124 754
1125 754
1126 754
1127 754
1128 754
1129 754
1130 754
1131 754
1132 754
1133 754
1134 754
1135 754
1136 754
1137 754
1138 754
1139 754
1140 754
1141 754
1142 754
1143 754
1144 754
1145 754
1146 754
1147 754
1148 754
1149 754
1150 754
1151 754
1152 754
1153 754
1154 754
1155 754
1156 754
1157 754
1158 754
1159 754
1160 754
1161 754
1162 754
1163 754
1164 754
1165 754
1166 754
1167 754
1168 754
1169 754
1170 754
1171 754
1172 754
1173 754
1098 755
1099 755
1100 755
1101 755
1102 755
1103 755
1104 755
1105 755
1106 755
1107 755
1108 755
1109 755
1110 755
1111 755
1112 755
1113 755
1114 755
1115 755
1116 755
1117 755
1118 755
1119 755
1120 755
1121 755
1122 755
1123 755
1124 755
1125 755
1126 755
1127 755
1128 755
1129 755
1130 755
1131 755
1132 755
1133 755
1134 755
1135 755
1136 755
1137 755
1138 755
1139 755
1140 755
1141 755
1142 755
1143 755
1144 755
1145 755
1146 755
1147 755
1148 755
1149 755
1150 755
1151 755
1152 755
1153 755
1154 755
1155 755
1156 755
1157 755
1158 755
1159 755
1160 755
1161 755
1162 755
1163 755
1164 755
1165 755
1166 755
1167 755
1168 755
1169 755
1170 755
1171 755
1172 755
1173 755
1098 756
1099 756
1100 756
1101 756
1102 756
1103 756
1104 756
1105 756
1106 756
1107 756
1108 756
1109 756
1110 756
1111 756
1112 756
1113 756
1114 756
1115 756
1116 756
1117 756
1118 756
1119 756
1120 756
1121 756
1122 756
1123 756
1124 756
1125 756
1126 756
1127 756
1128 756
1129 756
1130 756
1131 756
1132 756
1133 756
1134 756
1135 756
1136 756
1137 756
1138 756
1139 756
1140 756
1141 756
1142 756
1143 756
1144 756
1145 756
1146 756
1147 756
1148 756
1149 756
1150 756
1151 756
1152 756
1153 756
1154 756
1155 756
1156 756
1157 756
1158 756
1159 756
1160 756
1161 756
1162 756
1163 756
1164 756
1165 756
1166 756
1167 756
1168 756
1169 756
1170 756
1171 756
1172 756
1173 756
1098 757
1099 757
1100 757
1101 757
1102 757
1103 757
1104 757
1105 757
1106 757
1107 757
1108 757
1109 757
1110 757
1111 757
1112 757
1113 757
1114 757
1115 757
1116 757
1117 757
1118 757
1119 757
1120 757
1121 757
1122 757
1123 757
1124 757
1125 757
1126 757
1127 757
1128 757
1129 757
1130 757
1131 757
1132 757
1133 757
1134 757
1135 757
1136 757
1137 757
1138 757
1139 757
1140 757
1141 757
1142 757
1143 757
1144 757
1145 757
1146 757
1147 757
1148 757
1149 757
1150 757
1151 757
1152 757
1153 757
1154 757
1155 757
1156 757
1157 757
1158 757
1159 757
1160 757
1161 757
1162 757
1163 757
1164 757
1165 757
1166 757
1167 757
1168 757
1169 757
1170 757
1171 757
1172 757
1173 757
1098 758
1099 758
1100 758
1101 758
1102 758
1103 758
1104 758
1105 758
1106 758
1107 758
1108 758
1109 758
1110 758
1111 758
1112 758
1113 758
1114 758
1115 758
1116 758
1117 758
1118 758
1119 758
1120 758
1121 758
1122 758
1123 758
1124 758
1125 758
1126 758
1127 758
1128 758
1129 758
1130 758
1131 758
1132 758
1133 758
1134 758
1135 758
1136 758
1137 758
1138 758
1139 758
1140 758
1141 758
1142 758
1143 758
1144 758
1145 758
1146 758
1147 758
1148 758
1149 758
1150 758
1151 758
1152 758
1153 758
1154 758
1155 758
1156 758
1157 758
1158 758
1159 758
1160 758
1161 758
1162 758
1163 758
1164 758
1165 758
1166 758
1167 758
1168 758
1169 758
1170 758
1171 758
1172 758
1173 758
1098 759
1099 759
1100 759
1101 759
1102 759
1103 759
1104 759
1105 759
1106 759
1107 759
1108 759
1109 759
1110 759
1111 759
1112 759
1113 759
1114 759
1115 759
1116 759
1117 759
1118 759
1119 759
1120 759
1121 759
1122 759
1123 759
1124 759
1125 759
1126 759
1127 759
1128 759
1129 759
1130 759
1131 759
1132 759
1133 759
1134 759
1135 759
1136 759
1137 759
1138 759
1139 759
1140 759
1141 759
1142 759
1143 759
1144 759
1145 759
1146 759
1147 759
1148 759
1149 759
1150 759
1151 759
1152 759
1153 759
1154 759
1155 759
1156 759
1157 759
1158 759
1159 759
1160 759
1161 759
1162 759
1163 759
1164 759
1165 759
1166 759
1167 759
1168 759
1169 759
1170 759
1171 759
1172 759
1173 759
1098 760
1099 760
1100 760
1101 760
1102 760
1103 760
1104 760
1105 760
1106 760
1107 760
1108 760
1109 760
1110 760
1111 760
1112 760
1113 760
1114 760
1115 760
1116 760
1117 760
1118 760
1119 760
1120 760
1121 760
1122 760
1123 760
1124 760
1125 760
1126 760
1127 760
1128 760
1129 760
1130 760
1131 760
1132 760
1133 760
1134 760
1135 760
1136 760
1137 760
1138 760
1139 760
1140 760
1141 760
1142 760
1143 760
1144 760
1145 760
1146 760
1147 760
1148 760
1149 760
1150 760
1151 760
1152 760
1153 760
1154 760
1155 760
1156 760
1157 760
1158 760
1159 760
1160 760
1161 760
1162 760
1163 760
1164 760
1165 760
1166 760
1167 760
1168 760
1169 760
1170 760
1171 760
1172 760
1173 760
1098 761
1099 761
1100 761
1101 761
1102 761
1103 761
1104 761
1105 761
1106 761
1107 761
1108 761
1109 761
1110 761
1111 761
1112 761
1113 761
1114 761
1115 761
1116 761
1117 761
1118 761
1119 761
1120 761
1121 761
1122 761
1123 761
1124 761
1125 761
1126 761
1127 761
1128 761
1129 761
1130 761
1131 761
1132 761
1133 761
1134 761
1135 761
1136 761
1137 761
1138 761
1139 761
1140 761
1141 761
1142 761
1143 761
1144 761
1145 761
1146 761
1147 761
1148 761
1149 761
1150 761
1151 761
1152 761
1153 761
1154 761
1155 761
1156 761
1157 761
1158 761
1159 761
1160 761
1161 761
1162 761
1163 761
1164 761
1165 761
1166 761
1167 761
1168 761
1169 761
1170 761
1171 761
1172 761
1173 761
1098 762
1099 762
1100 762
1101 762
1102 762
1103 762
1104 762
1105 762
1106 762
1107 762
1108 762
1109 762
1110 762
1111 762
1112 762
1113 762
1114 762
1115 762
1116 762
1117 762
1118 762
1119 762
1120 762
1121 762
1122 762
1123 762
1124 762
1125 762
1126 762
1127 762
1128 762
1129 762
1130 762
1131 762
1132 762
1133 762
1134 762
1135 762
1136 762
1137 762
1138 762
1139 762
1140 762
1141 762
1142 762
1143 762
1144 762
1145 762
1146 762
1147 762
1148 762
1149 762
1150 762
1151 762
1152 762
1153 762
1154 762
1155 762
1156 762
1157 762
1158 762
1159 762
1160 762
1161 762
1162 762
1163 762
1164 762
1165 762
1166 762
1167 762
1168 762
1169 762
1170 762
1171 762
1172 762
1173 762
1098 763
1099 763
1100 763
1101 763
1102 763
1103 763
1104 763
1105 763
1106 763
1107 763
1108 763
1109 763
1110 763
1111 763
1112 763
1113 763
1114 763
1115 763
1116 763
1117 763
1118 763
1119 763
1120 763
1121 763
1122 763
1123 763
1124 763
1125 763
1126 763
1127 763
1128 763
1129 763
1130 763
1131 763
1132 763
1133 763
1134 763
1135 763
1136 763
1137 763
1138 763
1139 763
1140 763
1141 763
1142 763
1143 763
1144 763
1145 763
1146 763
1147 763
1148 763
1149 763
1150 763
1151 763
1152 763
1153 763
1154 763
1155 763
1156 763
1157 763
1158 763
1159 763
1160 763
1161 763
1162 763
1163 763
1164 763
1165 763
1166 763
1167 763
1168 763
1169 763
1170 763
1171 763
1172 763
1173 763
1098 764
1099 764
1100 764
1101 764
1102 764
1103 764
1104 764
1105 764
1106 764
1107 764
1108 764
1109 764
1110 764
1111 764
1112 764
1113 764
1114 764
1115 764
1116 764
1117 764
1118 764
1119 764
1120 764
1121 764
1122 764
1123 764
1124 764
1125 764
1126 764
1127 764
1128 764
1129 764
1130 764
1131 764
1132 764
1133 764
1134 764
1135 764
1136 764
1137 764
1138 764
1139 764
1140 764
1141 764
1142 764
1143 764
1144 764
1145 764
1146 764
1147 764
1148 764
1149 764
1150 764
1151 764
1152 764
1153 764
1154 764
1155 764
1156 764
1157 764
1158 764
1159 764
1160 764
1161 764
1162 764
1163 764
1164 764
1165 764
1166 764
1167 764
1168 764
1169 764
1170 764
1171 764
1172 764
1173 764
1098 765
1099 765
1100 765
1101 765
1102 765
1103 765
1104 765
1105 765
1106 765
1107 765
1108 765
1109 765
1110 765
1111 765
1112 765
1113 765
1114 765
1115 765
1116 765
1117 765
1118 765
1119 765
1120 765
1121 765
1122 765
1123 765
1124 765
1125 765
1126 765
1127 765
1128 765
1129 765
1130 765
1131 765
1132 765
1133 765
1134 765
1135 765
1136 765
1137 765
1138 765
1139 765
1140 765
1141 765
1142 765
1143 765
1144 765
1145 765
1146 765
1147 765
1148 765
1149 765
1150 765
1151 765
1152 765
1153 765
1154 765
1155 765
1156 765
1157 765
1158 765
1159 765
1160 765
1161 765
1162 765
1163 765
1164 765
1165 765
1166 765
1167 765
1168 765
1169 765
1170 765
1171 765
1172 765
1173 765
1098 766
1099 766
1100 766
1101 766
1102 766
1103 766
1104 766
1105 766
1106 766
1107 766
1108 766
1109 766
1110 766
1111 766
1112 766
1113 766
1114 766
1115 766
1116 766
1117 766
1118 766
1119 766
1120 766
1121 766
1122 766
1123 766
1124 766
1125 766
1126 766
1127 766
1128 766
1129 766
1130 766
1131 766
1132 766
1133 766
1134 766
1135 766
1136 766
1137 766
1138 766
1139 766
1140 766
1141 766
1142 766
1143 766
1144 766
1145 766
1146 766
1147 766
1148 766
1149 766
1150 766
1151 766
1152 766
1153 766
1154 766
1155 766
1156 766
1157 766
1158 766
1159 766
1160 766
1161 766
1162 766
1163 766
1164 766
1165 766
1166 766
1167 766
1168 766
1169 766
1170 766
1171 766
1172 766
1173 766
1098 767
1099 767
1100 767
1101 767
1102 767
1103 767
1104 767
1105 767
1106 767
1107 767
1108 767
1109 767
1110 767
1111 767
1112 767
1113 767
1114 767
1115 767
1116 767
1117 767
1118 767
1119 767
1120 767
1121 767
1122 767
1123 767
1124 767
1125 767
1126 767
1127 767
1128 767
1129 767
1130 767
1131 767
1132 767
1133 767
1134 767
1135 767
1136 767
1137 767
1138 767
1139 767
1140 767
1141 767
1142 767
1143 767
1144 767
1145 767
1146 767
1147 767
1148 767
1149 767
1150 767
1151 767
1152 767
1153 767
1154 767
1155 767
1156 767
1157 767
1158 767
1159 767
1160 767
1161 767
1162 767
1163 767
1164 767
1165 767
1166 767
1167 767
1168 767
1169 767
1170 767
1171 767
1172 767
1173 767
1098 768
1099 768
1100 768
1101 768
1102 768
1103 768
1104 768
1105 768
1106 768
1107 768
1108 768
1109 768
1110 768
1111 768
1112 768
1113 768
1114 768
1115 768
1116 768
1117 768
1118 768
1119 768
1120 768
1121 768
1122 768
1123 768
1124 768
1125 768
1126 768
1127 768
1128 768
1129 768
1130 768
1131 768
1132 768
1133 768
1134 768
1135 768
1136 768
1137 768
1138 768
1139 768
1140 768
1141 768
1142 768
1143 768
1144 768
1145 768
1146 768
1147 768
1148 768
1149 768
1150 768
1151 768
1152 768
1153 768
1154 768
1155 768
1156 768
1157 768
1158 768
1159 768
1160 768
1161 768
1162 768
1163 768
1164 768
1165 768
1166 768
1167 768
1168 768
1169 768
1170 768
1171 768
1172 768
1173 768
1098 769
1099 769
1100 769
1101 769
1102 769
1103 769
1104 769
1105 769
1106 769
1107 769
1108 769
1109 769
1110 769
1111 769
1112 769
1113 769
1114 769
1115 769
1116 769
1117 769
1118 769
1119 769
1120 769
1121 769
1122 769
1123 769
1124 769
1125 769
1126 769
1127 769
1128 769
1129 769
1130 769
1131 769
1132 769
1133 769
1134 769
1135 769
1136 769
1137 769
1138 769
1139 769
1140 769
1141 769
1142 769
1143 769
1144 769
1145 769
1146 769
1147 769
1148 769
1149 769
1150 769
1151 769
1152 769
1153 769
1154 769
1155 769
1156 769
1157 769
1158 769
1159 769
1160 769
1161 769
1162 769
1163 769
1164 769
1165 769
1166 769
1167 769
1168 769
1169 769
1170 769
1171 769
1172 769
1173 769
1098 770
1099 770
1100 770
1101 770
1102 770
1103 770
1104 770
1105 770
1106 770
1107 770
1108 770
1109 770
1110 770
1111 770
1112 770
1113 770
1114 770
1115 770
1116 770
1117 770
1118 770
1119 770
1120 770
1121 770
1122 770
1123 770
1124 770
1125 770
1126 770
1127 770
1128 770
1129 770
1130 770
1131 770
1132 770
1133 770
1134 770
1135 770
1136 770
1137 770
1138 770
1139 770
1140 770
1141 770
1142 770
1143 770
1144 770
1145 770
1146 770
1147 770
1148 770
1149 770
1150 770
1151 770
1152 770
1153 770
1154 770
1155 770
1156 770
1157 770
1158 770
1159 770
1160 770
1161 770
1162 770
1163 770
1164 770
1165 770
1166 770
1167 770
1168 770
1169 770
1170 770
1171 770
1172 770
1173 770
1098 771
1099 771
1100 771
1101 771
1102 771
1103 771
1104 771
1105 771
1106 771
1107 771
1108 771
1109 771
1110 771
1111 771
1112 771
1113 771
1114 771
1115 771
1116 771
1117 771
1118 771
1119 771
1120 771
1121 771
1122 771
1123 771
1124 771
1125 771
1126 771
1127 771
1128 771
1129 771
1130 771
1131 771
1132 771
1133 771
1134 771
1135 771
1136 771
1137 771
1138 771
1139 771
1140 771
1141 771
1142 771
1143 771
1144 771
1145 771
1146 771
1147 771
1148 771
1149 771
1150 771
1151 771
1152 771
1153 771
1154 771
1155 771
1156 771
1157 771
1158 771
1159 771
1160 771
1161 771
1162 771
1163 771
1164 771
1165 771
1166 771
1167 771
1168 771
1169 771
1170 771
1171 771
1172 771
1173 771
1098 772
1099 772
1100 772
1101 772
1102 772
1103 772
1104 772
1105 772
1106 772
1107 772
1108 772
1109 772
1110 772
1111 772
1112 772
1113 772
1114 772
1115 772
1116 772
1117 772
1118 772
1119 772
1120 772
1121 772
1122 772
1123 772
1124 772
1125 772
1126 772
1127 772
1128 772
1129 772
1130 772
1131 772
1132 772
1133 772
1134 772
1135 772
1136 772
1137 772
1138 772
1139 772
1140 772
1141 772
1142 772
1143 772
1144 772
1145 772
1146 772
1147 772
1148 772
1149 772
1150 772
1151 772
1152 772
1153 772
1154 772
1155 772
1156 772
1157 772
1158 772
1159 772
1160 772
1161 772
1162 772
1163 772
1164 772
1165 772
1166 772
1167 772
1168 772
1169 772
1170 772
1171 772
1172 772
1173 772
1098 773
1099 773
1100 773
1101 773
1102 773
1103 773
1104 773
1105 773
1106 773
1107 773
1108 773
1109 773
1110 773
1111 773
1112 773
1113 773
1114 773
1115 773
1116 773
1117 773
1118 773
1119 773
1120 773
1121 773
1122 773
1123 773
1124 773
1125 773
1126 773
1127 773
1128 773
1129 773
1130 773
1131 773
1132 773
1133 773
1134 773
1135 773
1136 773
1137 773
1138 773
1139 773
1140 773
1141 773
1142 773
1143 773
1144 773
1145 773
1146 773
1147 773
1148 773
1149 773
1150 773
1151 773
1152 773
1153 773
1154 773
1155 773
1156 773
1157 773
1158 773
1159 773
1160 773
1161 773
1162 773
1163 773
1164 773
1165 773
1166 773
1167 773
1168 773
1169 773
1170 773
1171 773
1172 773
1173 773
1098 774
1099 774
1100 774
1101 774
1102 774
1103 774
1104 774
1105 774
1106 774
1107 774
1108 774
1109 774
1110 774
1111 774
1112 774
1113 774
1114 774
1115 774
1116 774
1117 774
1118 774
1119 774
1120 774
1121 774
1122 774
1123 774
1124 774
1125 774
1126 774
1127 774
1128 774
1129 774
1130 774
1131 774
1132 774
1133 774
1134 774
1135 774
1136 774
1137 774
1138 774
1139 774
1140 774
1141 774
1142 774
1143 774
1144 774
1145 774
1146 774
1147 774
1148 774
1149 774
1150 774
1151 774
1152 774
1153 774
1154 774
1155 774
1156 774
1157 774
1158 774
1159 774
1160 774
1161 774
1162 774
1163 774
1164 774
1165 774
1166 774
1167 774
1168 774
1169 774
1170 774
1171 774
1172 774
1173 774
1098 775
1099 775
1100 775
1101 775
1102 775
1103 775
1104 775
1105 775
1106 775
1107 775
1108 775
1109 775
1110 775
1111 775
1112 775
1113 775
1114 775
1115 775
1116 775
1117 775
1118 775
1119 775
1120 775
1121 775
1122 775
1123 775
1124 775
1125 775
1126 775
1127 775
1128 775
1129 775
1130 775
1131 775
1132 775
1133 775
1134 775
1135 775
1136 775
1137 775
1138 775
1139 775
1140 775
1141 775
1142 775
1143 775
1144 775
1145 775
1146 775
1147 775
1148 775
1149 775
1150 775
1151 775
1152 775
1153 775
1154 775
1155 775
1156 775
1157 775
1158 775
1159 775
1160 775
1161 775
1162 775
1163 775
1164 775
1165 775
1166 775
1167 775
1168 775
1169 775
1170 775
1171 775
1172 775
1173 775
1098 776
1099 776
1100 776
1101 776
1102 776
1103 776
1104 776
1105 776
1106 776
1107 776
1108 776
1109 776
1110 776
1111 776
1112 776
1113 776
1114 776
1115 776
1116 776
1117 776
1118 776
1119 776
1120 776
1121 776
1122 776
1123 776
1124 776
1125 776
1126 776
1127 776
1128 776
1129 776
1130 776
1131 776
1132 776
1133 776
1134 776
1135 776
1136 776
1137 776
1138 776
1139 776
1140 776
1141 776
1142 776
1143 776
1144 776
1145 776
1146 776
1147 776
1148 776
1149 776
1150 776
1151 776
1152 776
1153 776
1154 776
1155 776
1156 776
1157 776
1158 776
1159 776
1160 776
1161 776
1162 776
1163 776
1164 776
1165 776
1166 776
1167 776
1168 776
1169 776
1170 776
1171 776
1172 776
1173 776
1098 777
1099 777
1100 777
1101 777
1102 777
1103 777
1104 777
1105 777
1106 777
1107 777
1108 777
1109 777
1110 777
1111 777
1112 777
1113 777
1114 777
1115 777
1116 777
1117 777
1118 777
1119 777
1120 777
1121 777
1122 777
1123 777
1124 777
1125 777
1126 777
1127 777
1128 777
1129 777
1130 777
1131 777
1132 777
1133 777
1134 777
1135 777
1136 777
1137 777
1138 777
1139 777
1140 777
1141 777
1142 777
1143 777
1144 777
1145 777
1146 777
1147 777
1148 777
1149 777
1150 777
1151 777
1152 777
1153 777
1154 777
1155 777
1156 777
1157 777
1158 777
1159 777
1160 777
1161 777
1162 777
1163 777
1164 777
1165 777
1166 777
1167 777
1168 777
1169 777
1170 777
1171 777
1172 777
1173 777
1218 822
1219 822
1220 822
1221 822
1222 822
1223 822
1224 822
1225 822
1226 822
1227 822
1228 822
1229 822
1230 822
1231 822
1232 822
1233 822
1234 822
1235 822
1236 822
1237 822
1238 822
1239 822
1240 822
1241 822
1242 822
1243 822
1244 822
1245 822
1246 822
1247 822
1248 822
1249 822
1250 822
1251 822
1252 822
1253 822
1254 822
1255 822
1256 822
1257 822
1258 822
1259 822
1260 822
1261 822
1262 822
1263 822
1264 822
1265 822
1266 822
1267 822
1268 822
1269 822
1270 822
1271 822
1272 822
1273 822
1274 822
1275 822
1276 822
1277 822
1278 822
1279 822
1280 822
1281 822
1282 822
1283 822
1284 822
1285 822
1286 822
1287 822
1288 822
1289 822
1290 822
1291 822
1292 822
1293 822
1218 823
1219 823
1220 823
1221 823
1222 823
1223 823
1224 823
1225 823
1226 823
1227 823
1228 823
1229 823
1230 823
1231 823
1232 823
1233 823
1234 823
1235 823
1236 823
1237 823
1238 823
1239 823
1240 823
1241 823
1242 823
1243 823
1244 823
1245 823
1246 823
1247 823
1248 823
1249 823
1250 823
1251 823
1252 823
1253 823
1254 823
1255 823
1256 823
1257 823
1258 823
1259 823
1260 823
1261 823
1262 823
1263 823
1264 823
1265 823
1266 823
1267 823
1268 823
1269 823
1270 823
1271 823
1272 823
1273 823
1274 823
1275 823
1276 823
1277 823
1278 823
1279 823
1280 823
1281 823
1282 823
1283 823
1284 823
1285 823
1286 823
1287 823
1288 823
1289 823
1290 823
1291 823
1292 823
1293 823
1218 824
1219 824
1220 824
1221 824
1222 824
1223 824
1224 824
1225 824
1226 824
1227 824
1228 824
1229 824
1230 824
1231 824
1232 824
1233 824
1234 824
1235 824
1236 824
1237 824
1238 824
1239 824
1240 824
1241 824
1242 824
1243 824
1244 824
1245 824
1246 824
1247 824
1248 824
1249 824
1250 824
1251 824
1252 824
1253 824
1254 824
1255 824
1256 824
1257 824
1258 824
1259 824
1260 824
1261 824
1262 824
1263 824
1264 824
1265 824
1266 824
1267 824
1268 824
1269 824
1270 824
1271 824
1272 824
1273 824
1274 824
1275 824
1276 824
1277 824
1278 824
1279 824
1280 824
1281 824
1282 824
1283 824
1284 824
1285 824
1286 824
1287 824
1288 824
1289 824
1290 824
1291 824
1292 824
1293 824
1218 825
1219 825
1220 825
1221 825
1222 825
1223 825
1224 825
1225 825
1226 825
1227 825
1228 825
1229 825
1230 825
1231 825
1232 825
1233 825
1234 825
1235 825
1236 825
1237 825
1238 825
1239 825
1240 825
1241 825
1242 825
1243 825
1244 825
1245 825
1246 825
1247 825
1248 825
1249 825
1250 825
1251 825
1252 825
1253 825
1254 825
1255 825
1256 825
1257 825
1258 825
1259 825
1260 825
1261 825
1262 825
1263 825
1264 825
1265 825
1266 825
1267 825
1268 825
1269 825
1270 825
1271 825
1272 825
1273 825
1274 825
1275 825
1276 825
1277 825
1278 825
1279 825
1280 825
1281 825
1282 825
1283 825
1284 825
1285 825
1286 825
1287 825
1288 825
1289 825
1290 825
1291 825
1292 825
1293 825
1218 826
1219 826
1220 826
1221 826
1222 826
1223 826
1224 826
1225 826
1226 826
1227 826
1228 826
1229 826
1230 826
1231 826
1232 826
1233 826
1234 826
1235 826
1236 826
1237 826
1238 826
1239 826
1240 826
1241 826
1242 826
1243 826
1244 826
1245 826
1246 826
1247 826
1248 826
1249 826
1250 826
1251 826
1252 826
1253 826
1254 826
1255 826
1256 826
1257 826
1258 826
1259 826
1260 826
1261 826
1262 826
1263 826
1264 826
1265 826
1266 826
1267 826
1268 826
1269 826
1270 826
1271 826
1272 826
1273 826
1274 826
1275 826
1276 826
1277 826
1278 826
1279 826
1280 826
1281 826
1282 826
1283 826
1284 826
1285 826
1286 826
1287 826
1288 826
1289 826
1290 826
1291 826
1292 826
1293 826
1218 827
1219 827
1220 827
1221 827
1222 827
1223 827
1224 827
1225 827
1226 827
1227 827
1228 827
1229 827
1230 827
1231 827
1232 827
1233 827
1234 827
1235 827
1236 827
1237 827
1238 827
1239 827
1240 827
1241 827
1242 827
1243 827
1244 827
1245 827
1246 827
1247 827
1248 827
1249 827
1250 827
1251 827
1252 827
1253 827
1254 827
1255 827
1256 827
1257 827
1258 827
1259 827
1260 827
1261 827
1262 827
1263 827
1264 827
1265 827
1266 827
1267 827
1268 827
1269 827
1270 827
1271 827
1272 827
1273 827
1274 827
1275 827
1276 827
1277 827
1278 827
1279 827
1280 827
1281 827
1282 827
1283 827
1284 827
1285 827
1286 827
1287 827
1288 827
1289 827
1290 827
1291 827
1292 827
1293 827
1218 828
1219 828
1220 828
1221 828
1222 828
1223 828
1224 828
1225 828
1226 828
1227 828
1228 828
1229 828
1230 828
1231 828
1232 828
1233 828
1234 828
1235 828
1236 828
1237 828
1238 828
1239 828
1240 828
1241 828
1242 828
1243 828
1244 828
1245 828
1246 828
1247 828
1248 828
1249 828
1250 828
1251 828
1252 828
1253 828
1254 828
1255 828
1256 828
1257 828
1258 828
1259 828
1260 828
1261 828
1262 828
1263 828
1264 828
1265 828
1266 828
1267 828
1268 828
1269 828
1270 828
1271 828
1272 828
1273 828
1274 828
1275 828
1276 828
1277 828
1278 828
1279 828
1280 828
1281 828
1282 828
1283 828
1284 828
1285 828
1286 828
1287 828
1288 828
1289 828
1290 828
1291 828
1292 828
1293 828
1218 829
1219 829
1220 829
1221 829
1222 829
1223 829
1224 829
1225 829
1226 829
1227 829
1228 829
1229 829
1230 829
1231 829
1232 829
1233 829
1234 829
1235 829
1236 829
1237 829
1238 829
1239 829
1240 829
1241 829
1242 829
1243 829
1244 829
1245 829
1246 829
1247 829
1248 829
1249 829
1250 829
1251 829
1252 829
1253 829
1254 829
1255 829
1256 829
1257 829
1258 829
1259 829
1260 829
1261 829
1262 829
1263 829
1264 829
1265 829
1266 829
1267 829
1268 829
1269 829
1270 829
1271 829
1272 829
1273 829
1274 829
1275 829
1276 829
1277 829
1278 829
1279 829
1280 829
1281 829
1282 829
1283 829
1284 829
1285 829
1286 829
1287 829
1288 829
1289 829
1290 829
1291 829
1292 829
1293 829
1218 830
1219 830
1220 830
1221 830
1222 830
1223 830
1224 830
1225 830
1226 830
1227 830
1228 830
1229 830
1230 830
1231 830
1232 830
1233 830
1234 830
1235 830
1236 830
1237 830
1238 830
1239 830
1240 830
1241 830
1242 830
1243 830
1244 830
1245 830
1246 830
1247 830
1248 830
1249 830
1250 830
1251 830
1252 830
1253 830
1254 830
1255 830
1256 830
1257 830
1258 830
1259 830
1260 830
1261 830
1262 830
1263 830
1264 830
1265 830
1266 830
1267 830
1268 830
1269 830
1270 830
1271 830
1272 830
1273 830
1274 830
1275 830
1276 830
1277 830
1278 830
1279 830
1280 830
1281 830
1282 830
1283 830
1284 830
1285 830
1286 830
1287 830
1288 830
1289 830
1290 830
1291 830
1292 830
1293 830
1218 831
1219 831
1220 831
1221 831
1222 831
1223 831
1224 831
1225 831
1226 831
1227 831
1228 831
1229 831
1230 831
1231 831
1232 831
1233 831
1234 831
1235 831
1236 831
1237 831
1238 831
1239 831
1240 831
1241 831
1242 831
1243 831
1244 831
1245 831
1246 831
1247 831
1248 831
1249 831
1250 831
1251 831
1252 831
1253 831
1254 831
1255 831
1256 831
1257 831
1258 831
1259 831
1260 831
1261 831
1262 831
1263 831
1264 831
1265 831
1266 831
1267 831
1268 831
1269 831
1270 831
1271 831
1272 831
1273 831
1274 831
1275 831
1276 831
1277 831
1278 831
1279 831
1280 831
1281 831
1282 831
1283 831
1284 831
1285 831
1286 831
1287 831
1288 831
1289 831
1290 831
1291 831
1292 831
1293 831
1218 832
1219 832
1220 832
1221 832
1222 832
1223 832
1224 832
1225 832
1226 832
1227 832
1228 832
1229 832
1230 832
1231 832
1232 832
1233 832
1234 832
1235 832
1236 832
1237 832
1238 832
1239 832
1240 832
1241 832
1242 832
1243 832
1244 832
1245 832
1246 832
1247 832
1248 832
1249 832
1250 832
1251 832
1252 832
1253 832
1254 832
1255 832
1256 832
1257 832
1258 832
1259 832
1260 832
1261 832
1262 832
1263 832
1264 832
1265 832
1266 832
1267 832
1268 832
1269 832
1270 832
1271 832
1272 832
1273 832
1274 832
1275 832
1276 832
1277 832
1278 832
1279 832
1280 832
1281 832
1282 832
1283 832
1284 832
1285 832
1286 832
1287 832
1288 832
1289 832
1290 832
1291 832
1292 832
1293 832
1218 833
1219 833
1220 833
1221 833
1222 833
1223 833
1224 833
1225 833
1226 833
1227 833
1228 833
1229 833
1230 833
1231 833
1232 833
1233 833
1234 833
1235 833
1236 833
1237 833
1238 833
1239 833
1240 833
1241 833
1242 833
1243 833
1244 833
1245 833
1246 833
1247 833
1248 833
1249 833
1250 833
1251 833
1252 833
1253 833
1254 833
1255 833
1256 833
1257 833
1258 833
1259 833
1260 833
1261 833
1262 833
1263 833
1264 833
1265 833
1266 833
1267 833
1268 833
1269 833
1270 833
1271 833
1272 833
1273 833
1274 833
1275 833
1276 833
1277 833
1278 833
1279 833
1280 833
1281 833
1282 833
1283 833
1284 833
1285 833
1286 833
1287 833
1288 833
1289 833
1290 833
1291 833
1292 833
1293 833
1218 834
1219 834
1220 834
1221 834
1222 834
1223 834
1224 834
1225 834
1226 834
1227 834
1228 834
1229 834
1230 834
1231 834
1232 834
1233 834
1234 834
1235 834
1236 834
1237 834
1238 834
1239 834
1240 834
1241 834
1242 834
1243 834
1244 834
1245 834
1246 834
1247 834
1248 834
1249 834
1250 834
1251 834
1252 834
1253 834
1254 834
1255 834
1256 834
1257 834
1258 834
1259 834
1260 834
1261 834
1262 834
1263 834
1264 834
1265 834
1266 834
1267 834
1268 834
1269 834
1270 834
1271 834
1272 834
1273 834
1274 834
1275 834
1276 834
1277 834
1278 834
1279 834
1280 834
1281 834
1282 834
1283 834
1284 834
1285 834
1286 834
1287 834
1288 834
1289 834
1290 834
1291 834
1292 834
1293 834
1218 835
1219 835
1220 835
1221 835
1222 835
1223 835
1224 835
1225 835
1226 835
1227 835
1228 835
1229 835
1230 835
1231 835
1232 835
1233 835
1234 835
1235 835
1236 835
1237 835
1238 835
1239 835
1240 835
1241 835
1242 835
1243 835
1244 835
1245 835
1246 835
1247 835
1248 835
1249 835
1250 835
1251 835
1252 835
1253 835
1254 835
1255 835
1256 835
1257 835
1258 835
1259 835
1260 835
1261 835
1262 835
1263 835
1264 835
1265 835
1266 835
1267 835
1268 835
1269 835
1270 835
1271 835
1272 835
1273 835
1274 835
1275 835
1276 835
1277 835
1278 835
1279 835
1280 835
1281 835
1282 835
1283 835
1284 835
1285 835
1286 835
1287 835
1288 835
1289 835
1290 835
1291 835
1292 835
1293 835
1218 836
1219 836
1220 836
1221 836
1222 836
1223 836
1224 836
1225 836
1226 836
1227 836
1228 836
1229 836
1230 836
1231 836
1232 836
1233 836
1234 836
1235 836
1236 836
1237 836
1238 836
1239 836
1240 836
1241 836
1242 836
1243 836
1244 836
1245 836
1246 836
1247 836
1248 836
1249 836
1250 836
1251 836
1252 836
1253 836
1254 836
1255 836
1256 836
1257 836
1258 836
1259 836
1260 836
1261 836
1262 836
1263 836
1264 836
1265 836
1266 836
1267 836
1268 836
1269 836
1270 836
1271 836
1272 836
1273 836
1274 836
1275 836
1276 836
1277 836
1278 836
1279 836
1280 836
1281 836
1282 836
1283 836
1284 836
1285 836
1286 836
1287 836
1288 836
1289 836
1290 836
1291 836
1292 836
1293 836
1218 837
1219 837
1220 837
1221 837
1222 837
1223 837
1224 837
1225 837
1226 837
1227 837
1228 837
1229 837
1230 837
1231 837
1232 837
1233 837
1234 837
1235 837
1236 837
1237 837
1238 837
1239 837
1240 837
1241 837
1242 837
1243 837
1244 837
1245 837
1246 837
1247 837
1248 837
1249 837
1250 837
1251 837
1252 837
1253 837
1254 837
1255 837
1256 837
1257 837
1258 837
1259 837
1260 837
1261 837
1262 837
1263 837
1264 837
1265 837
1266 837
1267 837
1268 837
1269 837
1270 837
1271 837
1272 837
1273 837
1274 837
1275 837
1276 837
1277 837
1278 837
1279 837
1280 837
1281 837
1282 837
1283 837
1284 837
1285 837
1286 837
1287 837
1288 837
1289 837
1290 837
1291 837
1292 837
1293 837
1218 838
1219 838
1220 838
1221 838
1222 838
1223 838
1224 838
1225 838
1226 838
1227 838
1228 838
1229 838
1230 838
1231 838
1232 838
1233 838
1234 838
1235 838
1236 838
1237 838
1238 838
1239 838
1240 838
1241 838
1242 838
1243 838
1244 838
1245 838
1246 838
1247 838
1248 838
1249 838
1250 838
1251 838
1252 838
1253 838
1254 838
1255 838
1256 838
1257 838
1258 838
1259 838
1260 838
1261 838
1262 838
1263 838
1264 838
1265 838
1266 838
1267 838
1268 838
1269 838
1270 838
1271 838
1272 838
1273 838
1274 838
1275 838
1276 838
1277 838
1278 838
1279 838
1280 838
1281 838
1282 838
1283 838
1284 838
1285 838
1286 838
1287 838
1288 838
1289 838
1290 838
1291 838
1292 838
1293 838
1218 839
1219 839
1220 839
1221 839
1222 839
1223 839
1224 839
1225 839
1226 839
1227 839
1228 839
1229 839
1230 839
1231 839
1232 839
1233 839
1234 839
1235 839
1236 839
1237 839
1238 839
1239 839
1240 839
1241 839
1242 839
1243 839
1244 839
1245 839
1246 839
1247 839
1248 839
1249 839
1250 839
1251 839
1252 839
1253 839
1254 839
1255 839
1256 839
1257 839
1258 839
1259 839
1260 839
1261 839
1262 839
1263 839
1264 839
1265 839
1266 839
1267 839
1268 839
1269 839
1270 839
1271 839
1272 839
1273 839
1274 839
1275 839
1276 839
1277 839
1278 839
1279 839
1280 839
1281 839
1282 839
1283 839
1284 839
1285 839
1286 839
1287 839
1288 839
1289 839
1290 839
1291 839
1292 839
1293 839
1218 840
1219 840
1220 840
1221 840
1222 840
1223 840
1224 840
1225 840
1226 840
1227 840
1228 840
1229 840
1230 840
1231 840
1232 840
1233 840
1234 840
1235 840
1236 840
1237 840
1238 840
1239 840
1240 840
1241 840
1242 840
1243 840
1244 840
1245 840
1246 840
1247 840
1248 840
1249 840
1250 840
1251 840
1252 840
1253 840
1254 840
1255 840
1256 840
1257 840
1258 840
1259 840
1260 840
1261 840
1262 840
1263 840
1264 840
1265 840
1266 840
1267 840
1268 840
1269 840
1270 840
1271 840
1272 840
1273 840
1274 840
1275 840
1276 840
1277 840
1278 840
1279 840
1280 840
1281 840
1282 840
1283 840
1284 840
1285 840
1286 840
1287 840
1288 840
1289 840
1290 840
1291 840
1292 840
1293 840
1218 841
1219 841
1220 841
1221 841
1222 841
1223 841
1224 841
1225 841
1226 841
1227 841
1228 841
1229 841
1230 841
1231 841
1232 841
1233 841
1234 841
1235 841
1236 841
1237 841
1238 841
1239 841
1240 841
1241 841
1242 841
1243 841
1244 841
1245 841
1246 841
1247 841
1248 841
1249 841
1250 841
1251 841
1252 841
1253 841
1254 841
1255 841
1256 841
1257 841
1258 841
1259 841
1260 841
1261 841
1262 841
1263 841
1264 841
1265 841
1266 841
1267 841
1268 841
1269 841
1270 841
1271 841
1272 841
1273 841
1274 841
1275 841
1276 841
1277 841
1278 841
1279 841
1280 841
1281 841
1282 841
1283 841
1284 841
1285 841
1286 841
1287 841
1288 841
1289 841
1290 841
1291 841
1292 841
1293 841
1218 842
1219 842
1220 842
1221 842
1222 842
1223 842
1224 842
1225 842
1226 842
1227 842
1228 842
1229 842
1230 842
1231 842
1232 842
1233 842
1234 842
1235 842
1236 842
1237 842
1238 842
1239 842
1240 842
1241 842
1242 842
1243 842
1244 842
1245 842
1246 842
1247 842
1248 842
1249 842
1250 842
1251 842
1252 842
1253 842
1254 842
1255 842
1256 842
1257 842
1258 842
1259 842
1260 842
1261 842
1262 842
1263 842
1264 842
1265 842
1266 842
1267 842
1268 842
1269 842
1270 842
1271 842
1272 842
1273 842
1274 842
1275 842
1276 842
1277 842
1278 842
1279 842
1280 842
1281 842
1282 842
1283 842
1284 842
1285 842
1286 842
1287 842
1288 842
1289 842
1290 842
1291 842
1292 842
1293 842
1218 843
1219 843
1220 843
1221 843
1222 843
1223 843
1224 843
1225 843
1226 843
1227 843
1228 843
1229 843
1230 843
1231 843
1232 843
1233 843
1234 843
1235 843
1236 843
1237 843
1238 843
1239 843
1240 843
1241 843
1242 843
1243 843
1244 843
1245 843
1246 843
1247 843
1248 843
1249 843
1250 843
1251 843
1252 843
1253 843
1254 843
1255 843
1256 843
1257 843
1258 843
1259 843
1260 843
1261 843
1262 843
1263 843
1264 843
1265 843
1266 843
1267 843
1268 843
1269 843
1270 843
1271 843
1272 843
1273 843
1274 843
1275 843
1276 843
1277 843
1278 843
1279 843
1280 843
1281 843
1282 843
1283 843
1284 843
1285 843
1286 843
1287 843
1288 843
1289 843
1290 843
1291 843
1292 843
1293 843
1218 844
1219 844
1220 844
1221 844
1222 844
1223 844
1224 844
1225 844
1226 844
1227 844
1228 844
1229 844
1230 844
1231 844
1232 844
1233 844
1234 844
1235 844
1236 844
1237 844
1238 844
1239 844
1240 844
1241 844
1242 844
1243 844
1244 844
1245 844
1246 844
1247 844
1248 844
1249 844
1250 844
1251 844
1252 844
1253 844
1254 844
1255 844
1256 844
1257 844
1258 844
1259 844
1260 844
1261 844
1262 844
1263 844
1264 844
1265 844
1266 844
1267 844
1268 844
1269 844
1270 844
1271 844
1272 844
1273 844
1274 844
1275 844
1276 844
1277 844
1278 844
1279 844
1280 844
1281 844
1282 844
1283 844
1284 844
1285 844
1286 844
1287 844
1288 844
1289 844
1290 844
1291 844
1292 844
1293 844
1218 845
1219 845
1220 845
1221 845
1222 845
1223 845
1224 845
1225 845
1226 845
1227 845
1228 845
1229 845
1230 845
1231 845
1232 845
1233 845
1234 845
1235 845
1236 845
1237 845
1238 845
1239 845
1240 845
1241 845
1242 845
1243 845
1244 845
1245 845
1246 845
1247 845
1248 845
1249 845
1250 845
1251 845
1252 845
1253 845
1254 845
1255 845
1256 845
1257 845
1258 845
1259 845
1260 845
1261 845
1262 845
1263 845
1264 845
1265 845
1266 845
1267 845
1268 845
1269 845
1270 845
1271 845
1272 845
1273 845
1274 845
1275 845
1276 845
1277 845
1278 845
1279 845
1280 845
1281 845
1282 845
1283 845
1284 845
1285 845
1286 845
1287 845
1288 845
1289 845
1290 845
1291 845
1292 845
1293 845
1218 846
1219 846
1220 846
1221 846
1222 846
1223 846
1224 846
1225 846
1226 846
1227 846
1228 846
1229 846
1230 846
1231 846
1232 846
1233 846
1234 846
1235 846
1236 846
1237 846
1238 846
1239 846
1240 846
1241 846
1242 846
1243 846
1244 846
1245 846
1246 846
1247 846
1248 846
1249 846
1250 846
1251 846
1252 846
1253 846
1254 846
1255 846
1256 846
1257 846
1258 846
1259 846
1260 846
1261 846
1262 846
1263 846
1264 846
1265 846
1266 846
1267 846
1268 846
1269 846
1270 846
1271 846
1272 846
1273 846
1274 846
1275 846
1276 846
1277 846
1278 846
1279 846
1280 846
1281 846
1282 846
1283 846
1284 846
1285 846
1286 846
1287 846
1288 846
1289 846
1290 846
1291 846
1292 846
1293 846
1218 847
1219 847
1220 847
1221 847
1222 847
1223 847
1224 847
1225 847
1226 847
1227 847
1228 847
1229 847
1230 847
1231 847
1232 847
1233 847
1234 847
1235 847
1236 847
1237 847
1238 847
1239 847
1240 847
1241 847
1242 847
1243 847
1244 847
1245 847
1246 847
1247 847
1248 847
1249 847
1250 847
1251 847
1252 847
1253 847
1254 847
1255 847
1256 847
1257 847
1258 847
1259 847
1260 847
1261 847
1262 847
1263 847
1264 847
1265 847
1266 847
1267 847
1268 847
1269 847
1270 847
1271 847
1272 847
1273 847
1274 847
1275 847
1276 847
1277 847
1278 847
1279 847
1280 847
1281 847
1282 847
1283 847
1284 847
1285 847
1286 847
1287 847
1288 847
1289 847
1290 847
1291 847
1292 847
1293 847
1218 848
1219 848
1220 848
1221 848
1222 848
1223 848
1224 848
1225 848
1226 848
1227 848
1228 848
1229 848
1230 848
1231 848
1232 848
1233 848
1234 848
1235 848
1236 848
1237 848
1238 848
1239 848
1240 848
1241 848
1242 848
1243 848
1244 848
1245 848
1246 848
1247 848
1248 848
1249 848
1250 848
1251 848
1252 848
1253 848
1254 848
1255 848
1256 848
1257 848
1258 848
1259 848
1260 848
1261 848
1262 848
1263 848
1264 848
1265 848
1266 848
1267 848
1268 848
1269 848
1270 848
1271 848
1272 848
1273 848
1274 848
1275 848
1276 848
1277 848
1278 848
1279 848
1280 848
1281 848
1282 848
1283 848
1284 848
1285 848
1286 848
1287 848
1288 848
1289 848
1290 848
1291 848
1292 848
1293 848
1218 849
1219 849
1220 849
1221 849
1222 849
1223 849
1224 849
1225 849
1226 849
1227 849
1228 849
1229 849
1230 849
1231 849
1232 849
1233 849
1234 849
1235 849
1236 849
1237 849
1238 849
1239 849
1240 849
1241 849
1242 849
1243 849
1244 849
1245 849
1246 849
1247 849
1248 849
1249 849
1250 849
1251 849
1252 849
1253 849
1254 849
1255 849
1256 849
1257 849
1258 849
1259 849
1260 849
1261 849
1262 849
1263 849
1264 849
1265 849
1266 849
1267 849
1268 849
1269 849
1270 849
1271 849
1272 849
1273 849
1274 849
1275 849
1276 849
1277 849
1278 849
1279 849
1280 849
1281 849
1282 849
1283 849
1284 849
1285 849
1286 849
1287 849
1288 849
1289 849
1290 849
1291 849
1292 849
1293 849
1218 850
1219 850
1220 850
1221 850
1222 850
1223 850
1224 850
1225 850
1226 850
1227 850
1228 850
1229 850
1230 850
1231 850
1232 850
1233 850
1234 850
1235 850
1236 850
1237 850
1238 850
1239 850
1240 850
1241 850
1242 850
1243 850
1244 850
1245 850
1246 850
1247 850
1248 850
1249 850
1250 850
1251 850
1252 850
1253 850
1254 850
1255 850
1256 850
1257 850
1258 850
1259 850
1260 850
1261 850
1262 850
1263 850
1264 850
1265 850
1266 850
1267 850
1268 850
1269 850
1270 850
1271 850
1272 850
1273 850
1274 850
1275 850
1276 850
1277 850
1278 850
1279 850
1280 850
1281 850
1282 850
1283 850
1284 850
1285 850
1286 850
1287 850
1288 850
1289 850
1290 850
1291 850
1292 850
1293 850
1218 851
1219 851
1220 851
1221 851
1222 851
1223 851
1224 851
1225 851
1226 851
1227 851
1228 851
1229 851
1230 851
1231 851
1232 851
1233 851
1234 851
1235 851
1236 851
1237 851
1238 851
1239 851
1240 851
1241 851
1242 851
1243 851
1244 851
1245 851
1246 851
1247 851
1248 851
1249 851
1250 851
1251 851
1252 851
1253 851
1254 851
1255 851
1256 851
1257 851
1258 851
1259 851
1260 851
1261 851
1262 851
1263 851
1264 851
1265 851
1266 851
1267 851
1268 851
1269 851
1270 851
1271 851
1272 851
1273 851
1274 851
1275 851
1276 851
1277 851
1278 851
1279 851
1280 851
1281 851
1282 851
1283 851
1284 851
1285 851
1286 851
1287 851
1288 851
1289 851
1290 851
1291 851
1292 851
1293 851
1218 852
1219 852
1220 852
1221 852
1222 852
1223 852
1224 852
1225 852
1226 852
1227 852
1228 852
1229 852
1230 852
1231 852
1232 852
1233 852
1234 852
1235 852
1236 852
1237 852
1238 852
1239 852
1240 852
1241 852
1242 852
1243 852
1244 852
1245 852
1246 852
1247 852
1248 852
1249 852
1250 852
1251 852
1252 852
1253 852
1254 852
1255 852
1256 852
1257 852
1258 852
1259 852
1260 852
1261 852
1262 852
1263 852
1264 852
1265 852
1266 852
1267 852
1268 852
1269 852
1270 852
1271 852
1272 852
1273 852
1274 852
1275 852
1276 852
1277 852
1278 852
1279 852
1280 852
1281 852
1282 852
1283 852
1284 852
1285 852
1286 852
1287 852
1288 852
1289 852
1290 852
1291 852
1292 852
1293 852
1218 853
1219 853
1220 853
1221 853
1222 853
1223 853
1224 853
1225 853
1226 853
1227 853
1228 853
1229 853
1230 853
1231 853
1232 853
1233 853
1234 853
1235 853
1236 853
1237 853
1238 853
1239 853
1240 853
1241 853
1242 853
1243 853
1244 853
1245 853
1246 853
1247 853
1248 853
1249 853
1250 853
1251 853
1252 853
1253 853
1254 853
1255 853
1256 853
1257 853
1258 853
1259 853
1260 853
1261 853
1262 853
1263 853
1264 853
1265 853
1266 853
1267 853
1268 853
1269 853
1270 853
1271 853
1272 853
1273 853
1274 853
1275 853
1276 853
1277 853
1278 853
1279 853
1280 853
1281 853
1282 853
1283 853
1284 853
1285 853
1286 853
1287 853
1288 853
1289 853
1290 853
1291 853
1292 853
1293 853
1218 854
1219 854
1220 854
1221 854
1222 854
1223 854
1224 854
1225 854
1226 854
1227 854
1228 854
1229 854
1230 854
1231 854
1232 854
1233 854
1234 854
1235 854
1236 854
1237 854
1238 854
1239 854
1240 854
1241 854
1242 854
1243 854
1244 854
1245 854
1246 854
1247 854
1248 854
1249 854
1250 854
1251 854
1252 854
1253 854
1254 854
1255 854
1256 854
1257 854
1258 854
1259 854
1260 854
1261 854
1262 854
1263 854
1264 854
1265 854
1266 854
1267 854
1268 854
1269 854
1270 854
1271 854
1272 854
1273 854
1274 854
1275 854
1276 854
1277 854
1278 854
1279 854
1280 854
1281 854
1282 854
1283 854
1284 854
1285 854
1286 854
1287 854
1288 854
1289 854
1290 854
1291 854
1292 854
1293 854
1218 855
1219 855
1220 855
1221 855
1222 855
1223 855
1224 855
1225 855
1226 855
1227 855
1228 855
1229 855
1230 855
1231 855
1232 855
1233 855
1234 855
1235 855
1236 855
1237 855
1238 855
1239 855
1240 855
1241 855
1242 855
1243 855
1244 855
1245 855
1246 855
1247 855
1248 855
1249 855
1250 855
1251 855
1252 855
1253 855
1254 855
1255 855
1256 855
1257 855
1258 855
1259 855
1260 855
1261 855
1262 855
1263 855
1264 855
1265 855
1266 855
1267 855
1268 855
1269 855
1270 855
1271 855
1272 855
1273 855
1274 855
1275 855
1276 855
1277 855
1278 855
1279 855
1280 855
1281 855
1282 855
1283 855
1284 855
1285 855
1286 855
1287 855
1288 855
1289 855
1290 855
1291 855
1292 855
1293 855
1218 856
1219 856
1220 856
1221 856
1222 856
1223 856
1224 856
1225 856
1226 856
1227 856
1228 856
1229 856
1230 856
1231 856
1232 856
1233 856
1234 856
1235 856
1236 856
1237 856
1238 856
1239 856
1240 856
1241 856
1242 856
1243 856
1244 856
1245 856
1246 856
1247 856
1248 856
1249 856
1250 856
1251 856
1252 856
1253 856
1254 856
1255 856
1256 856
1257 856
1258 856
1259 856
1260 856
1261 856
1262 856
1263 856
1264 856
1265 856
1266 856
1267 856
1268 856
1269 856
1270 856
1271 856
1272 856
1273 856
1274 856
1275 856
1276 856
1277 856
1278 856
1279 856
1280 856
1281 856
1282 856
1283 856
1284 856
1285 856
1286 856
1287 856
1288 856
1289 856
1290 856
1291 856
1292 856
1293 856
1218 857
1219 857
1220 857
1221 857
1222 857
1223 857
1224 857
1225 857
1226 857
1227 857
1228 857
1229 857
1230 857
1231 857
1232 857
1233 857
1234 857
1235 857
1236 857
1237 857
1238 857
1239 857
1240 857
1241 857
1242 857
1243 857
1244 857
1245 857
1246 857
1247 857
1248 857
1249 857
1250 857
1251 857
1252 857
1253 857
1254 857
1255 857
1256 857
1257 857
1258 857
1259 857
1260 857
1261 857
1262 857
1263 857
1264 857
1265 857
1266 857
1267 857
1268 857
1269 857
1270 857
1271 857
1272 857
1273 857
1274 857
1275 857
1276 857
1277 857
1278 857
1279 857
1280 857
1281 857
1282 857
1283 857
1284 857
1285 857
1286 857
1287 857
1288 857
1289 857
1290 857
1291 857
1292 857
1293 857
1218 858
1219 858
1220 858
1221 858
1222 858
1223 858
1224 858
1225 858
1226 858
1227 858
1228 858
1229 858
1230 858
1231 858
1232 858
1233 858
1234 858
1235 858
1236 858
1237 858
1238 858
1239 858
1240 858
1241 858
1242 858
1243 858
1244 858
1245 858
1246 858
1247 858
1248 858
1249 858
1250 858
1251 858
1252 858
1253 858
1254 858
1255 858
1256 858
1257 858
1258 858
1259 858
1260 858
1261 858
1262 858
1263 858
1264 858
1265 858
1266 858
1267 858
1268 858
1269 858
1270 858
1271 858
1272 858
1273 858
1274 858
1275 858
1276 858
1277 858
1278 858
1279 858
1280 858
1281 858
1282 858
1283 858
1284 858
1285 858
1286 858
1287 858
1288 858
1289 858
1290 858
1291 858
1292 858
1293 858
1338 903
1339 903
1340 903
1341 903
1342 903
1343 903
1344 903
1345 903
1346 903
1347 903
1348 903
1349 903
1350 903
1351 903
1352 903
1353 903
1354 903
1355 903
1356 903
1357 903
1358 903
1359 903
1360 903
1361 903
1362 903
1363 903
1364 903
1365 903
1366 903
1367 903
1368 903
1369 903
1370 903
1371 903
1372 903
1373 903
1374 903
1375 903
1376 903
1377 903
1378 903
1379 903
1380 903
1381 903
1382 903
1383 903
1384 903
1385 903
1386 903
1387 903
1388 903
1389 903
1390 903
1391 903
1392 903
1393 903
1394 903
1395 903
1396 903
1397 903
1398 903
1399 903
1400 903
1401 903
1402 903
1403 903
1404 903
1405 903
1406 903
1407 903
1408 903
1409 903
1410 903
1411 903
1412 903
1413 903
1338 904
1339 904
1340 904
1341 904
1342 904
1343 904
1344 904
1345 904
1346 904
1347 904
1348 904
1349 904
1350 904
1351 904
1352 904
1353 904
1354 904
1355 904
1356 904
1357 904
1358 904
1359 904
1360 904
1361 904
1362 904
1363 904
1364 904
1365 904
1366 904
1367 904
1368 904
1369 904
1370 904
1371 904
1372 904
1373 904
1374 904
1375 904
1376 904
1377 904
1378 904
1379 904
1380 904
1381 904
1382 904
1383 904
1384 904
1385 904
1386 904
1387 904
1388 904
1389 904
1390 904
1391 904
1392 904
1393 904
1394 904
1395 904
1396 904
1397 904
1398 904
1399 904
1400 904
1401 904
1402 904
1403 904
1404 904
1405 904
1406 904
1407 904
1408 904
1409 904
1410 904
1411 904
1412 904
1413 904
1338 905
1339 905
1340 905
1341 905
1342 905
1343 905
1344 905
1345 905
1346 905
1347 905
1348 905
1349 905
1350 905
1351 905
1352 905
1353 905
1354 905
1355 905
1356 905
1357 905
1358 905
1359 905
1360 905
1361 905
1362 905
1363 905
1364 905
1365 905
1366 905
1367 905
1368 905
1369 905
1370 905
1371 905
1372 905
1373 905
1374 905
1375 905
1376 905
1377 905
1378 905
1379 905
1380 905
1381 905
1382 905
1383 905
1384 905
1385 905
1386 905
1387 905
1388 905
1389 905
1390 905
1391 905
1392 905
1393 905
1394 905
1395 905
1396 905
1397 905
1398 905
1399 905
1400 905
1401 905
1402 905
1403 905
1404 905
1405 905
1406 905
1407 905
1408 905
1409 905
1410 905
1411 905
1412 905
1413 905
1338 906
1339 906
1340 906
1341 906
1342 906
1343 906
1344 906
1345 906
1346 906
1347 906
1348 906
1349 906
1350 906
1351 906
1352 906
1353 906
1354 906
1355 906
1356 906
1357 906
1358 906
1359 906
1360 906
1361 906
1362 906
1363 906
1364 906
1365 906
1366 906
1367 906
1368 906
1369 906
1370 906
1371 906
1372 906
1373 906
1374 906
1375 906
1376 906
1377 906
1378 906
1379 906
1380 906
1381 906
1382 906
1383 906
1384 906
1385 906
1386 906
1387 906
1388 906
1389 906
1390 906
1391 906
1392 906
1393 906
1394 906
1395 906
1396 906
1397 906
1398 906
1399 906
1400 906
1401 906
1402 906
1403 906
1404 906
1405 906
1406 906
1407 906
1408 906
1409 906
1410 906
1411 906
1412 906
1413 906
1338 907
1339 907
1340 907
1341 907
1342 907
1343 907
1344 907
1345 907
1346 907
1347 907
1348 907
1349 907
1350 907
1351 907
1352 907
1353 907
1354 907
1355 907
1356 907
1357 907
1358 907
1359 907
1360 907
1361 907
1362 907
1363 907
1364 907
1365 907
1366 907
1367 907
1368 907
1369 907
1370 907
1371 907
1372 907
1373 907
1374 907
1375 907
1376 907
1377 907
1378 907
1379 907
1380 907
1381 907
1382 907
1383 907
1384 907
1385 907
1386 907
1387 907
1388 907
1389 907
1390 907
1391 907
1392 907
1393 907
1394 907
1395 907
1396 907
1397 907
1398 907
1399 907
1400 907
1401 907
1402 907
1403 907
1404 907
1405 907
1406 907
1407 907
1408 907
1409 907
1410 907
1411 907
1412 907
1413 907
1338 908
1339 908
1340 908
1341 908
1342 908
1343 908
1344 908
1345 908
1346 908
1347 908
1348 908
1349 908
1350 908
1351 908
1352 908
1353 908
1354 908
1355 908
1356 908
1357 908
1358 908
1359 908
1360 908
1361 908
1362 908
1363 908
1364 908
1365 908
1366 908
1367 908
1368 908
1369 908
1370 908
1371 908
1372 908
1373 908
1374 908
1375 908
1376 908
1377 908
1378 908
1379 908
1380 908
1381 908
1382 908
1383 908
1384 908
1385 908
1386 908
1387 908
1388 908
1389 908
1390 908
1391 908
1392 908
1393 908
1394 908
1395 908
1396 908
1397 908
1398 908
1399 908
1400 908
1401 908
1402 908
1403 908
1404 908
1405 908
1406 908
1407 908
1408 908
1409 908
1410 908
1411 908
1412 908
1413 908
1338 909
1339 909
1340 909
1341 909
1342 909
1343 909
1344 909
1345 909
1346 909
1347 909
1348 909
1349 909
1350 909
1351 909
1352 909
1353 909
1354 909
1355 909
1356 909
1357 909
1358 909
1359 909
1360 909
1361 909
1362 909
1363 909
1364 909
1365 909
1366 909
1367 909
1368 909
1369 909
1370 909
1371 909
1372 909
1373 909
1374 909
1375 909
1376 909
1377 909
1378 909
1379 909
1380 909
1381 909
1382 909
1383 909
1384 909
1385 909
1386 909
1387 909
1388 909
1389 909
1390 909
1391 909
1392 909
1393 909
1394 909
1395 909
1396 909
1397 909
1398 909
1399 909
1400 909
1401 909
1402 909
1403 909
1404 909
1405 909
1406 909
1407 909
1408 909
1409 909
1410 909
1411 909
1412 909
1413 909
1338 910
1339 910
1340 910
1341 910
1342 910
1343 910
1344 910
1345 910
1346 910
1347 910
1348 910
1349 910
1350 910
1351 910
1352 910
1353 910
1354 910
1355 910
1356 910
1357 910
1358 910
1359 910
1360 910
1361 910
1362 910
1363 910
1364 910
1365 910
1366 910
1367 910
1368 910
1369 910
1370 910
1371 910
1372 910
1373 910
1374 910
1375 910
1376 910
1377 910
1378 910
1379 910
1380 910
1381 910
1382 910
1383 910
1384 910
1385 910
1386 910
1387 910
1388 910
1389 910
1390 910
1391 910
1392 910
1393 910
1394 910
1395 910
1396 910
1397 910
1398 910
1399 910
1400 910
1401 910
1402 910
1403 910
1404 910
1405 910
1406 910
1407 910
1408 910
1409 910
1410 910
1411 910
1412 910
1413 910
1338 911
1339 911
1340 911
1341 911
1342 911
1343 911
1344 911
1345 911
1346 911
1347 911
1348 911
1349 911
1350 911
1351 911
1352 911
1353 911
1354 911
1355 911
1356 911
1357 911
1358 911
1359 911
1360 911
1361 911
1362 911
1363 911
1364 911
1365 911
1366 911
1367 911
1368 911
1369 911
1370 911
1371 911
1372 911
1373 911
1374 911
1375 911
1376 911
1377 911
1378 911
1379 911
1380 911
1381 911
1382 911
1383 911
1384 911
1385 911
1386 911
1387 911
1388 911
1389 911
1390 911
1391 911
1392 911
1393 911
1394 911
1395 911
1396 911
1397 911
1398 911
1399 911
1400 911
1401 911
1402 911
1403 911
1404 911
1405 911
1406 911
1407 911
1408 911
1409 911
1410 911
1411 911
1412 911
1413 911
1338 912
1339 912
1340 912
1341 912
1342 912
1343 912
1344 912
1345 912
1346 912
1347 912
1348 912
1349 912
1350 912
1351 912
1352 912
1353 912
1354 912
1355 912
1356 912
1357 912
1358 912
1359 912
1360 912
1361 912
1362 912
1363 912
1364 912
1365 912
1366 912
1367 912
1368 912
1369 912
1370 912
1371 912
1372 912
1373 912
1374 912
1375 912
1376 912
1377 912
1378 912
1379 912
1380 912
1381 912
1382 912
1383 912
1384 912
1385 912
1386 912
1387 912
1388 912
1389 912
1390 912
1391 912
1392 912
1393 912
1394 912
1395 912
1396 912
1397 912
1398 912
1399 912
1400 912
1401 912
1402 912
1403 912
1404 912
1405 912
1406 912
1407 912
1408 912
1409 912
1410 912
1411 912
1412 912
1413 912
1338 913
1339 913
1340 913
1341 913
1342 913
1343 913
1344 913
1345 913
1346 913
1347 913
1348 913
1349 913
1350 913
1351 913
1352 913
1353 913
1354 913
1355 913
1356 913
1357 913
1358 913
1359 913
1360 913
1361 913
1362 913
1363 913
1364 913
1365 913
1366 913
1367 913
1368 913
1369 913
1370 913
1371 913
1372 913
1373 913
1374 913
1375 913
1376 913
1377 913
1378 913
1379 913
1380 913
1381 913
1382 913
1383 913
1384 913
1385 913
1386 913
1387 913
1388 913
1389 913
1390 913
1391 913
1392 913
1393 913
1394 913
1395 913
1396 913
1397 913
1398 913
1399 913
1400 913
1401 913
1402 913
1403 913
1404 913
1405 913
1406 913
1407 913
1408 913
1409 913
1410 913
1411 913
1412 913
1413 913
1338 914
1339 914
1340 914
1341 914
1342 914
1343 914
1344 914
1345 914
1346 914
1347 914
1348 914
1349 914
1350 914
1351 914
1352 914
1353 914
1354 914
1355 914
1356 914
1357 914
1358 914
1359 914
1360 914
1361 914
1362 914
1363 914
1364 914
1365 914
1366 914
1367 914
1368 914
1369 914
1370 914
1371 914
1372 914
1373 914
1374 914
1375 914
1376 914
1377 914
1378 914
1379 914
1380 914
1381 914
1382 914
1383 914
1384 914
1385 914
1386 914
1387 914
1388 914
1389 914
1390 914
1391 914
1392 914
1393 914
1394 914
1395 914
1396 914
1397 914
1398 914
1399 914
1400 914
1401 914
1402 914
1403 914
1404 914
1405 914
1406 914
1407 914
1408 914
1409 914
1410 914
1411 914
1412 914
1413 914
1338 915
1339 915
1340 915
1341 915
1342 915
1343 915
1344 915
1345 915
1346 915
1347 915
1348 915
1349 915
1350 915
1351 915
1352 915
1353 915
1354 915
1355 915
1356 915
1357 915
1358 915
1359 915
1360 915
1361 915
1362 915
1363 915
1364 915
1365 915
1366 915
1367 915
1368 915
1369 915
1370 915
1371 915
1372 915
1373 915
1374 915
1375 915
1376 915
1377 915
1378 915
1379 915
1380 915
1381 915
1382 915
1383 915
1384 915
1385 915
1386 915
1387 915
1388 915
1389 915
1390 915
1391 915
1392 915
1393 915
1394 915
1395 915
1396 915
1397 915
1398 915
1399 915
1400 915
1401 915
1402 915
1403 915
1404 915
1405 915
1406 915
1407 915
1408 915
1409 915
1410 915
1411 915
1412 915
1413 915
1338 916
1339 916
1340 916
1341 916
1342 916
1343 916
1344 916
1345 916
1346 916
1347 916
1348 916
1349 916
1350 916
1351 916
1352 916
1353 916
1354 916
1355 916
1356 916
1357 916
1358 916
1359 916
1360 916
1361 916
1362 916
1363 916
1364 916
1365 916
1366 916
1367 916
1368 916
1369 916
1370 916
1371 916
1372 916
1373 916
1374 916
1375 916
1376 916
1377 916
1378 916
1379 916
1380 916
1381 916
1382 916
1383 916
1384 916
1385 916
1386 916
1387 916
1388 916
1389 916
1390 916
1391 916
1392 916
1393 916
1394 916
1395 916
1396 916
1397 916
1398 916
1399 916
1400 916
1401 916
1402 916
1403 916
1404 916
1405 916
1406 916
1407 916
1408 916
1409 916
1410 916
1411 916
1412 916
1413 916
1338 917
1339 917
1340 917
1341 917
1342 917
1343 917
1344 917
1345 917
1346 917
1347 917
1348 917
1349 917
1350 917
1351 917
1352 917
1353 917
1354 917
1355 917
1356 917
1357 917
1358 917
1359 917
1360 917
1361 917
1362 917
1363 917
1364 917
1365 917
1366 917
1367 917
1368 917
1369 917
1370 917
1371 917
1372 917
1373 917
1374 917
1375 917
1376 917
1377 917
1378 917
1379 917
1380 917
1381 917
1382 917
1383 917
1384 917
1385 917
1386 917
1387 917
1388 917
1389 917
1390 917
1391 917
1392 917
1393 917
1394 917
1395 917
1396 917
1397 917
1398 917
1399 917
1400 917
1401 917
1402 917
1403 917
1404 917
1405 917
1406 917
1407 917
1408 917
1409 917
1410 917
1411 917
1412 917
1413 917
1338 918
1339 918
1340 918
1341 918
1342 918
1343 918
1344 918
1345 918
1346 918
1347 918
1348 918
1349 918
1350 918
1351 918
1352 918
1353 918
1354 918
1355 918
1356 918
1357 918
1358 918
1359 918
1360 918
1361 918
1362 918
1363 918
1364 918
1365 918
1366 918
1367 918
1368 918
1369 918
1370 918
1371 918
1372 918
1373 918
1374 918
1375 918
1376 918
1377 918
1378 918
1379 918
1380 918
1381 918
1382 918
1383 918
1384 918
1385 918
1386 918
1387 918
1388 918
1389 918
1390 918
1391 918
1392 918
1393 918
1394 918
1395 918
1396 918
1397 918
1398 918
1399 918
1400 918
1401 918
1402 918
1403 918
1404 918
1405 918
1406 918
1407 918
1408 918
1409 918
1410 918
1411 918
1412 918
1413 918
1338 919
1339 919
1340 919
1341 919
1342 919
1343 919
1344 919
1345 919
1346 919
1347 919
1348 919
1349 919
1350 919
1351 919
1352 919
1353 919
1354 919
1355 919
1356 919
1357 919
1358 919
1359 919
1360 919
1361 919
1362 919
1363 919
1364 919
1365 919
1366 919
1367 919
1368 919
1369 919
1370 919
1371 919
1372 919
1373 919
1374 919
1375 919
1376 919
1377 919
1378 919
1379 919
1380 919
1381 919
1382 919
1383 919
1384 919
1385 919
1386 919
1387 919
1388 919
1389 919
1390 919
1391 919
1392 919
1393 919
1394 919
1395 919
1396 919
1397 919
1398 919
1399 919
1400 919
1401 919
1402 919
1403 919
1404 919
1405 919
1406 919
1407 919
1408 919
1409 919
1410 919
1411 919
1412 919
1413 919
1338 920
1339 920
1340 920
1341 920
1342 920
1343 920
1344 920
1345 920
1346 920
1347 920
1348 920
1349 920
1350 920
1351 920
1352 920
1353 920
1354 920
1355 920
1356 920
1357 920
1358 920
1359 920
1360 920
1361 920
1362 920
1363 920
1364 920
1365 920
1366 920
1367 920
1368 920
1369 920
1370 920
1371 920
1372 920
1373 920
1374 920
1375 920
1376 920
1377 920
1378 920
1379 920
1380 920
1381 920
1382 920
1383 920
1384 920
1385 920
1386 920
1387 920
1388 920
1389 920
1390 920
1391 920
1392 920
1393 920
1394 920
1395 920
1396 920
1397 920
1398 920
1399 920
1400 920
1401 920
1402 920
1403 920
1404 920
1405 920
1406 920
1407 920
1408 920
1409 920
1410 920
1411 920
1412 920
1413 920
1338 921
1339 921
1340 921
1341 921
1342 921
1343 921
1344 921
1345 921
1346 921
1347 921
1348 921
1349 921
1350 921
1351 921
1352 921
1353 921
1354 921
1355 921
1356 921
1357 921
1358 921
1359 921
1360 921
1361 921
1362 921
1363 921
1364 921
1365 921
1366 921
1367 921
1368 921
1369 921
1370 921
1371 921
1372 921
1373 921
1374 921
1375 921
1376 921
1377 921
1378 921
1379 921
1380 921
1381 921
1382 921
1383 921
1384 921
1385 921
1386 921
1387 921
1388 921
1389 921
1390 921
1391 921
1392 921
1393 921
1394 921
1395 921
1396 921
1397 921
1398 921
1399 921
1400 921
1401 921
1402 921
1403 921
1404 921
1405 921
1406 921
1407 921
1408 921
1409 921
1410 921
1411 921
1412 921
1413 921
1338 922
1339 922
1340 922
1341 922
1342 922
1343 922
1344 922
1345 922
1346 922
1347 922
1348 922
1349 922
1350 922
1351 922
1352 922
1353 922
1354 922
1355 922
1356 922
1357 922
1358 922
1359 922
1360 922
1361 922
1362 922
1363 922
1364 922
1365 922
1366 922
1367 922
1368 922
1369 922
1370 922
1371 922
1372 922
1373 922
1374 922
1375 922
1376 922
1377 922
1378 922
1379 922
1380 922
1381 922
1382 922
1383 922
1384 922
1385 922
1386 922
1387 922
1388 922
1389 922
1390 922
1391 922
1392 922
1393 922
1394 922
1395 922
1396 922
1397 922
1398 922
1399 922
1400 922
1401 922
1402 922
1403 922
1404 922
1405 922
1406 922
1407 922
1408 922
1409 922
1410 922
1411 922
1412 922
1413 922
1338 923
1339 923
1340 923
1341 923
1342 923
1343 923
1344 923
1345 923
1346 923
1347 923
1348 923
1349 923
1350 923
1351 923
1352 923
1353 923
1354 923
1355 923
1356 923
1357 923
1358 923
1359 923
1360 923
1361 923
1362 923
1363 923
1364 923
1365 923
1366 923
1367 923
1368 923
1369 923
1370 923
1371 923
1372 923
1373 923
1374 923
1375 923
1376 923
1377 923
1378 923
1379 923
1380 923
1381 923
1382 923
1383 923
1384 923
1385 923
1386 923
1387 923
1388 923
1389 923
1390 923
1391 923
1392 923
1393 923
1394 923
1395 923
1396 923
1397 923
1398 923
1399 923
1400 923
1401 923
1402 923
1403 923
1404 923
1405 923
1406 923
1407 923
1408 923
1409 923
1410 923
1411 923
1412 923
1413 923
1338 924
1339 924
1340 924
1341 924
1342 924
1343 924
1344 924
1345 924
1346 924
1347 924
1348 924
1349 924
1350 924
1351 924
1352 924
1353 924
1354 924
1355 924
1356 924
1357 924
1358 924
1359 924
1360 924
1361 924
1362 924
1363 924
1364 924
1365 924
1366 924
1367 924
1368 924
1369 924
1370 924
1371 924
1372 924
1373 924
1374 924
1375 924
1376 924
1377 924
1378 924
1379 924
1380 924
1381 924
1382 924
1383 924
1384 924
1385 924
1386 924
1387 924
1388 924
1389 924
1390 924
1391 924
1392 924
1393 924
1394 924
1395 924
1396 924
1397 924
1398 924
1399 924
1400 924
1401 924
1402 924
1403 924
1404 924
1405 924
1406 924
1407 924
1408 924
1409 924
1410 924
1411 924
1412 924
1413 924
1338 925
1339 925
1340 925
1341 925
1342 925
1343 925
1344 925
1345 925
1346 925
1347 925
1348 925
1349 925
1350 925
1351 925
1352 925
1353 925
1354 925
1355 925
1356 925
1357 925
1358 925
1359 925
1360 925
1361 925
1362 925
1363 925
1364 925
1365 925
1366 925
1367 925
1368 925
1369 925
1370 925
1371 925
1372 925
1373 925
1374 925
1375 925
1376 925
1377 925
1378 925
1379 925
1380 925
1381 925
1382 925
1383 925
1384 925
1385 925
1386 925
1387 925
1388 925
1389 925
1390 925
1391 925
1392 925
1393 925
1394 925
1395 925
1396 925
1397 925
1398 925
1399 925
1400 925
1401 925
1402 925
1403 925
1404 925
1405 925
1406 925
1407 925
1408 925
1409 925
1410 925
1411 925
1412 925
1413 925
1338 926
1339 926
1340 926
1341 926
1342 926
1343 926
1344 926
1345 926
1346 926
1347 926
1348 926
1349 926
1350 926
1351 926
1352 926
1353 926
1354 926
1355 926
1356 926
1357 926
1358 926
1359 926
1360 926
1361 926
1362 926
1363 926
1364 926
1365 926
1366 926
1367 926
1368 926
1369 926
1370 926
1371 926
1372 926
1373 926
1374 926
1375 926
1376 926
1377 926
1378 926
1379 926
1380 926
1381 926
1382 926
1383 926
1384 926
1385 926
1386 926
1387 926
1388 926
1389 926
1390 926
1391 926
1392 926
1393 926
1394 926
1395 926
1396 926
1397 926
1398 926
1399 926
1400 926
1401 926
1402 926
1403 926
1404 926
1405 926
1406 926
1407 926
1408 926
1409 926
1410 926
1411 926
1412 926
1413 926
1338 927
1339 927
1340 927
1341 927
1342 927
1343 927
1344 927
1345 927
1346 927
1347 927
1348 927
1349 927
1350 927
1351 927
1352 927
1353 927
1354 927
1355 927
1356 927
1357 927
1358 927
1359 927
1360 927
1361 927
1362 927
1363 927
1364 927
1365 927
1366 927
1367 927
1368 927
1369 927
1370 927
1371 927
1372 927
1373 927
1374 927
1375 927
1376 927
1377 927
1378 927
1379 927
1380 927
1381 927
1382 927
1383 927
1384 927
1385 927
1386 927
1387 927
1388 927
1389 927
1390 927
1391 927
1392 927
1393 927
1394 927
1395 927
1396 927
1397 927
1398 927
1399 927
1400 927
1401 927
1402 927
1403 927
1404 927
1405 927
1406 927
1407 927
1408 927
1409 927
1410 927
1411 927
1412 927
1413 927
1338 928
1339 928
1340 928
1341 928
1342 928
1343 928
1344 928
1345 928
1346 928
1347 928
1348 928
1349 928
1350 928
1351 928
1352 928
1353 928
1354 928
1355 928
1356 928
1357 928
1358 928
1359 928
1360 928
1361 928
1362 928
1363 928
1364 928
1365 928
1366 928
1367 928
1368 928
1369 928
1370 928
1371 928
1372 928
1373 928
1374 928
1375 928
1376 928
1377 928
1378 928
1379 928
1380 928
1381 928
1382 928
1383 928
1384 928
1385 928
1386 928
1387 928
1388 928
1389 928
1390 928
1391 928
1392 928
1393 928
1394 928
1395 928
1396 928
1397 928
1398 928
1399 928
1400 928
1401 928
1402 928
1403 928
1404 928
1405 928
1406 928
1407 928
1408 928
1409 928
1410 928
1411 928
1412 928
1413 928
1338 929
1339 929
1340 929
1341 929
1342 929
1343 929
1344 929
1345 929
1346 929
1347 929
1348 929
1349 929
1350 929
1351 929
1352 929
1353 929
1354 929
1355 929
1356 929
1357 929
1358 929
1359 929
1360 929
1361 929
1362 929
1363 929
1364 929
1365 929
1366 929
1367 929
1368 929
1369 929
1370 929
1371 929
1372 929
1373 929
1374 929
1375 929
1376 929
1377 929
1378 929
1379 929
1380 929
1381 929
1382 929
1383 929
1384 929
1385 929
1386 929
1387 929
1388 929
1389 929
1390 929
1391 929
1392 929
1393 929
1394 929
1395 929
1396 929
1397 929
1398 929
1399 929
1400 929
1401 929
1402 929
1403 929
1404 929
1405 929
1406 929
1407 929
1408 929
1409 929
1410 929
1411 929
1412 929
1413 929
1338 930
1339 930
1340 930
1341 930
1342 930
1343 930
1344 930
1345 930
1346 930
1347 930
1348 930
1349 930
1350 930
1351 930
1352 930
1353 930
1354 930
1355 930
1356 930
1357 930
1358 930
1359 930
1360 930
1361 930
1362 930
1363 930
1364 930
1365 930
1366 930
1367 930
1368 930
1369 930
1370 930
1371 930
1372 930
1373 930
1374 930
1375 930
1376 930
1377 930
1378 930
1379 930
1380 930
1381 930
1382 930
1383 930
1384 930
1385 930
1386 930
1387 930
1388 930
1389 930
1390 930
1391 930
1392 930
1393 930
1394 930
1395 930
1396 930
1397 930
1398 930
1399 930
1400 930
1401 930
1402 930
1403 930
1404 930
1405 930
1406 930
1407 930
1408 930
1409 930
1410 930
1411 930
1412 930
1413 930
1338 931
1339 931
1340 931
1341 931
1342 931
1343 931
1344 931
1345 931
1346 931
1347 931
1348 931
1349 931
1350 931
1351 931
1352 931
1353 931
1354 931
1355 931
1356 931
1357 931
1358 931
1359 931
1360 931
1361 931
1362 931
1363 931
1364 931
1365 931
1366 931
1367 931
1368 931
1369 931
1370 931
1371 931
1372 931
1373 931
1374 931
1375 931
1376 931
1377 931
1378 931
1379 931
1380 931
1381 931
1382 931
1383 931
1384 931
1385 931
1386 931
1387 931
1388 931
1389 931
1390 931
1391 931
1392 931
1393 931
1394 931
1395 931
1396 931
1397 931
1398 931
1399 931
1400 931
1401 931
1402 931
1403 931
1404 931
1405 931
1406 931
1407 931
1408 931
1409 931
1410 931
1411 931
1412 931
1413 931
1338 932
1339 932
1340 932
1341 932
1342 932
1343 932
1344 932
1345 932
1346 932
1347 932
1348 932
1349 932
1350 932
1351 932
1352 932
1353 932
1354 932
1355 932
1356 932
1357 932
1358 932
1359 932
1360 932
1361 932
1362 932
1363 932
1364 932
1365 932
1366 932
1367 932
1368 932
1369 932
1370 932
1371 932
1372 932
1373 932
1374 932
1375 932
1376 932
1377 932
1378 932
1379 932
1380 932
1381 932
1382 932
1383 932
1384 932
1385 932
1386 932
1387 932
1388 932
1389 932
1390 932
1391 932
1392 932
1393 932
1394 932
1395 932
1396 932
1397 932
1398 932
1399 932
1400 932
1401 932
1402 932
1403 932
1404 932
1405 932
1406 932
1407 932
1408 932
1409 932
1410 932
1411 932
1412 932
1413 932
1338 933
1339 933
1340 933
1341 933
1342 933
1343 933
1344 933
1345 933
1346 933
1347 933
1348 933
1349 933
1350 933
1351 933
1352 933
1353 933
1354 933
1355 933
1356 933
1357 933
1358 933
1359 933
1360 933
1361 933
1362 933
1363 933
1364 933
1365 933
1366 933
1367 933
1368 933
1369 933
1370 933
1371 933
1372 933
1373 933
1374 933
1375 933
1376 933
1377 933
1378 933
1379 933
1380 933
1381 933
1382 933
1383 933
1384 933
1385 933
1386 933
1387 933
1388 933
1389 933
1390 933
1391 933
1392 933
1393 933
1394 933
1395 933
1396 933
1397 933
1398 933
1399 933
1400 933
1401 933
1402 933
1403 933
1404 933
1405 933
1406 933
1407 933
1408 933
1409 933
1410 933
1411 933
1412 933
1413 933
1338 934
1339 934
1340 934
1341 934
1342 934
1343 934
1344 934
1345 934
1346 934
1347 934
1348 934
1349 934
1350 934
1351 934
1352 934
1353 934
1354 934
1355 934
1356 934
1357 934
1358 934
1359 934
1360 934
1361 934
1362 934
1363 934
1364 934
1365 934
1366 934
1367 934
1368 934
1369 934
1370 934
1371 934
1372 934
1373 934
1374 934
1375 934
1376 934
1377 934
1378 934
1379 934
1380 934
1381 934
1382 934
1383 934
1384 934
1385 934
1386 934
1387 934
1388 934
1389 934
1390 934
1391 934
1392 934
1393 934
1394 934
1395 934
1396 934
1397 934
1398 934
1399 934
1400 934
1401 934
1402 934
1403 934
1404 934
1405 934
1406 934
1407 934
1408 934
1409 934
1410 934
1411 934
1412 934
1413 934
1338 935
1339 935
1340 935
1341 935
1342 935
1343 935
1344 935
1345 935
1346 935
1347 935
1348 935
1349 935
1350 935
1351 935
1352 935
1353 935
1354 935
1355 935
1356 935
1357 935
1358 935
1359 935
1360 935
1361 935
1362 935
1363 935
1364 935
1365 935
1366 935
1367 935
1368 935
1369 935
1370 935
1371 935
1372 935
1373 935
1374 935
1375 935
1376 935
1377 935
1378 935
1379 935
1380 935
1381 935
1382 935
1383 935
1384 935
1385 935
1386 935
1387 935
1388 935
1389 935
1390 935
1391 935
1392 935
1393 935
1394 935
1395 935
1396 935
1397 935
1398 935
1399 935
1400 935
1401 935
1402 935
1403 935
1404 935
1405 935
1406 935
1407 935
1408 935
1409 935
1410 935
1411 935
1412 935
1413 935
1338 936
1339 936
1340 936
1341 936
1342 936
1343 936
1344 936
1345 936
1346 936
1347 936
1348 936
1349 936
1350 936
1351 936
1352 936
1353 936
1354 936
1355 936
1356 936
1357 936
1358 936
1359 936
1360 936
1361 936
1362 936
1363 936
1364 936
1365 936
1366 936
1367 936
1368 936
1369 936
1370 936
1371 936
1372 936
1373 936
1374 936
1375 936
1376 936
1377 936
1378 936
1379 936
1380 936
1381 936
1382 936
1383 936
1384 936
1385 936
1386 936
1387 936
1388 936
1389 936
1390 936
1391 936
1392 936
1393 936
1394 936
1395 936
1396 936
1397 936
1398 936
1399 936
1400 936
1401 936
1402 936
1403 936
1404 936
1405 936
1406 936
1407 936
1408 936
1409 936
1410 936
1411 936
1412 936
1413 936
1338 937
1339 937
1340 937
1341 937
1342 937
1343 937
1344 937
1345 937
1346 937
1347 937
1348 937
1349 937
1350 937
1351 937
1352 937
1353 937
1354 937
1355 937
1356 937
1357 937
1358 937
1359 937
1360 937
1361 937
1362 937
1363 937
1364 937
1365 937
1366 937
1367 937
1368 937
1369 937
1370 937
1371 937
1372 937
1373 937
1374 937
1375 937
1376 937
1377 937
1378 937
1379 937
1380 937
1381 937
1382 937
1383 937
1384 937
1385 937
1386 937
1387 937
1388 937
1389 937
1390 937
1391 937
1392 937
1393 937
1394 937
1395 937
1396 937
1397 937
1398 937
1399 937
1400 937
1401 937
1402 937
1403 937
1404 937
1405 937
1406 937
1407 937
1408 937
1409 937
1410 937
1411 937
1412 937
1413 937
1338 938
1339 938
1340 938
1341 938
1342 938
1343 938
1344 938
1345 938
1346 938
1347 938
1348 938
1349 938
1350 938
1351 938
1352 938
1353 938
1354 938
1355 938
1356 938
1357 938
1358 938
1359 938
1360 938
1361 938
1362 938
1363 938
1364 938
1365 938
1366 938
1367 938
1368 938
1369 938
1370 938
1371 938
1372 938
1373 938
1374 938
1375 938
1376 938
1377 938
1378 938
1379 938
1380 938
1381 938
1382 938
1383 938
1384 938
1385 938
1386 938
1387 938
1388 938
1389 938
1390 938
1391 938
1392 938
1393 938
1394 938
1395 938
1396 938
1397 938
1398 938
1399 938
1400 938
1401 938
1402 938
1403 938
1404 938
1405 938
1406 938
1407 938
1408 938
1409 938
1410 938
1411 938
1412 938
1413 938
1338 939
1339 939
1340 939
1341 939
1342 939
1343 939
1344 939
1345 939
1346 939
1347 939
1348 939
1349 939
1350 939
1351 939
1352 939
1353 939
1354 939
1355 939
1356 939
1357 939
1358 939
1359 939
1360 939
1361 939
1362 939
1363 939
1364 939
1365 939
1366 939
1367 939
1368 939
1369 939
1370 939
1371 939
1372 939
1373 939
1374 939
1375 939
1376 939
1377 939
1378 939
1379 939
1380 939
1381 939
1382 939
1383 939
1384 939
1385 939
1386 939
1387 939
1388 939
1389 939
1390 939
1391 939
1392 939
1393 939
1394 939
1395 939
1396 939
1397 939
1398 939
1399 939
1400 939
1401 939
1402 939
1403 939
1404 939
1405 939
1406 939
1407 939
1408 939
1409 939
1410 939
1411 939
1412 939
1413 939
1458 984
1459 984
1460 984
1461 984
1462 984
1463 984
1464 984
1465 984
1466 984
1467 984
1468 984
1469 984
1470 984
1471 984
1472 984
1473 984
1474 984
1475 984
1476 984
1477 984
1478 984
1479 984
1480 984
1481 984
1482 984
1483 984
1484 984
1485 984
1486 984
1487 984
1488 984
1489 984
1490 984
1491 984
1492 984
1493 984
1494 984
1495 984
1496 984
1497 984
1498 984
1499 984
1500 984
1501 984
1502 984
1503 984
1504 984
1505 984
1506 984
1507 984
1508 984
1509 984
1510 984
1511 984
1512 984
1513 984
1514 984
1515 984
1516 984
1517 984
1518 984
1519 984
1520 984
1521 984
1522 984
1523 984
1524 984
1525 984
1526 984
1527 984
1528 984
1529 984
1530 984
1531 984
1532 984
1533 984
1458 985
1459 985
1460 985
1461 985
1462 985
1463 985
1464 985
1465 985
1466 985
1467 985
1468 985
1469 985
1470 985
1471 985
1472 985
1473 985
1474 985
1475 985
1476 985
1477 985
1478 985
1479 985
1480 985
1481 985
1482 985
1483 985
1484 985
1485 985
1486 985
1487 985
1488 985
1489 985
1490 985
1491 985
1492 985
1493 985
1494 985
1495 985
1496 985
1497 985
1498 985
1499 985
1500 985
1501 985
1502 985
1503 985
1504 985
1505 985
1506 985
1507 985
1508 985
1509 985
1510 985
1511 985
1512 985
1513 985
1514 985
1515 985
1516 985
1517 985
1518 985
1519 985
1520 985
1521 985
1522 985
1523 985
1524 985
1525 985
1526 985
1527 985
1528 985
1529 985
1530 985
1531 985
1532 985
1533 985
1458 986
1459 986
1460 986
1461 986
1462 986
1463 986
1464 986
1465 986
1466 986
1467 986
1468 986
1469 986
1470 986
1471 986
1472 986
1473 986
1474 986
1475 986
1476 986
1477 986
1478 986
1479 986
1480 986
1481 986
1482 986
1483 986
1484 986
1485 986
1486 986
1487 986
1488 986
1489 986
1490 986
1491 986
1492 986
1493 986
1494 986
1495 986
1496 986
1497 986
1498 986
1499 986
1500 986
1501 986
1502 986
1503 986
1504 986
1505 986
1506 986
1507 986
1508 986
1509 986
1510 986
1511 986
1512 986
1513 986
1514 986
1515 986
1516 986
1517 986
1518 986
1519 986
1520 986
1521 986
1522 986
1523 986
1524 986
1525 986
1526 986
1527 986
1528 986
1529 986
1530 986
1531 986
1532 986
1533 986
1458 987
1459 987
1460 987
1461 987
1462 987
1463 987
1464 987
1465 987
1466 987
1467 987
1468 987
1469 987
1470 987
1471 987
1472 987
1473 987
1474 987
1475 987
1476 987
1477 987
1478 987
1479 987
1480 987
1481 987
1482 987
1483 987
1484 987
1485 987
1486 987
1487 987
1488 987
1489 987
1490 987
1491 987
1492 987
1493 987
1494 987
1495 987
1496 987
1497 987
1498 987
1499 987
1500 987
1501 987
1502 987
1503 987
1504 987
1505 987
1506 987
1507 987
1508 987
1509 987
1510 987
1511 987
1512 987
1513 987
1514 987
1515 987
1516 987
1517 987
1518 987
1519 987
1520 987
1521 987
1522 987
1523 987
1524 987
1525 987
1526 987
1527 987
1528 987
1529 987
1530 987
1531 987
1532 987
1533 987
1458 988
1459 988
1460 988
1461 988
1462 988
1463 988
1464 988
1465 988
1466 988
1467 988
1468 988
1469 988
1470 988
1471 988
1472 988
1473 988
1474 988
1475 988
1476 988
1477 988
1478 988
1479 988
1480 988
1481 988
1482 988
1483 988
1484 988
1485 988
1486 988
1487 988
1488 988
1489 988
1490 988
1491 988
1492 988
1493 988
1494 988
1495 988
1496 988
1497 988
1498 988
1499 988
1500 988
1501 988
1502 988
1503 988
1504 988
1505 988
1506 988
1507 988
1508 988
1509 988
1510 988
1511 988
1512 988
1513 988
1514 988
1515 988
1516 988
1517 988
1518 988
1519 988
1520 988
1521 988
1522 988
1523 988
1524 988
1525 988
1526 988
1527 988
1528 988
1529 988
1530 988
1531 988
1532 988
1533 988
1458 989
1459 989
1460 989
1461 989
1462 989
1463 989
1464 989
1465 989
1466 989
1467 989
1468 989
1469 989
1470 989
1471 989
1472 989
1473 989
1474 989
1475 989
1476 989
1477 989
1478 989
1479 989
1480 989
1481 989
1482 989
1483 989
1484 989
1485 989
1486 989
1487 989
1488 989
1489 989
1490 989
1491 989
1492 989
1493 989
1494 989
1495 989
1496 989
1497 989
1498 989
1499 989
1500 989
1501 989
1502 989
1503 989
1504 989
1505 989
1506 989
1507 989
1508 989
1509 989
1510 989
1511 989
1512 989
1513 989
1514 989
1515 989
1516 989
1517 989
1518 989
1519 989
1520 989
1521 989
1522 989
1523 989
1524 989
1525 989
1526 989
1527 989
1528 989
1529 989
1530 989
1531 989
1532 989
1533 989
1458 990
1459 990
1460 990
1461 990
1462 990
1463 990
1464 990
1465 990
1466 990
1467 990
1468 990
1469 990
1470 990
1471 990
1472 990
1473 990
1474 990
1475 990
1476 990
1477 990
1478 990
1479 990
1480 990
1481 990
1482 990
1483 990
1484 990
1485 990
1486 990
1487 990
1488 990
1489 990
1490 990
1491 990
1492 990
1493 990
1494 990
1495 990
1496 990
1497 990
1498 990
1499 990
1500 990
1501 990
1502 990
1503 990
1504 990
1505 990
1506 990
1507 990
1508 990
1509 990
1510 990
1511 990
1512 990
1513 990
1514 990
1515 990
1516 990
1517 990
1518 990
1519 990
1520 990
1521 990
1522 990
1523 990
1524 990
1525 990
1526 990
1527 990
1528 990
1529 990
1530 990
1531 990
1532 990
1533 990
1458 991
1459 991
1460 991
1461 991
1462 991
1463 991
1464 991
1465 991
1466 991
1467 991
1468 991
1469 991
1470 991
1471 991
1472 991
1473 991
1474 991
1475 991
1476 991
1477 991
1478 991
1479 991
1480 991
1481 991
1482 991
1483 991
1484 991
1485 991
1486 991
1487 991
1488 991
1489 991
1490 991
1491 991
1492 991
1493 991
1494 991
1495 991
1496 991
1497 991
1498 991
1499 991
1500 991
1501 991
1502 991
1503 991
1504 991
1505 991
1506 991
1507 991
1508 991
1509 991
1510 991
1511 991
1512 991
1513 991
1514 991
1515 991
1516 991
1517 991
1518 991
1519 991
1520 991
1521 991
1522 991
1523 991
1524 991
1525 991
1526 991
1527 991
1528 991
1529 991
1530 991
1531 991
1532 991
1533 991
1458 992
1459 992
1460 992
1461 992
1462 992
1463 992
1464 992
1465 992
1466 992
1467 992
1468 992
1469 992
1470 992
1471 992
1472 992
1473 992
1474 992
1475 992
1476 992
1477 992
1478 992
1479 992
1480 992
1481 992
1482 992
1483 992
1484 992
1485 992
1486 992
1487 992
1488 992
1489 992
1490 992
1491 992
1492 992
1493 992
1494 992
1495 992
1496 992
1497 992
1498 992
1499 992
1500 992
1501 992
1502 992
1503 992
1504 992
1505 992
1506 992
1507 992
1508 992
1509 992
1510 992
1511 992
1512 992
1513 992
1514 992
1515 992
1516 992
1517 992
1518 992
1519 992
1520 992
1521 992
1522 992
1523 992
1524 992
1525 992
1526 992
1527 992
1528 992
1529 992
1530 992
1531 992
1532 992
1533 992
1458 993
1459 993
1460 993
1461 993
1462 993
1463 993
1464 993
1465 993
1466 993
1467 993
1468 993
1469 993
1470 993
1471 993
1472 993
1473 993
1474 993
1475 993
1476 993
1477 993
1478 993
1479 993
1480 993
1481 993
1482 993
1483 993
1484 993
1485 993
1486 993
1487 993
1488 993
1489 993
1490 993
1491 993
1492 993
1493 993
1494 993
1495 993
1496 993
1497 993
1498 993
1499 993
1500 993
1501 993
1502 993
1503 993
1504 993
1505 993
1506 993
1507 993
1508 993
1509 993
1510 993
1511 993
1512 993
1513 993
1514 993
1515 993
1516 993
1517 993
1518 993
1519 993
1520 993
1521 993
1522 993
1523 993
1524 993
1525 993
1526 993
1527 993
1528 993
1529 993
1530 993
1531 993
1532 993
1533 993
1458 994
1459 994
1460 994
1461 994
1462 994
1463 994
1464 994
1465 994
1466 994
1467 994
1468 994
1469 994
1470 994
1471 994
1472 994
1473 994
1474 994
1475 994
1476 994
1477 994
1478 994
1479 994
1480 994
1481 994
1482 994
1483 994
1484 994
1485 994
1486 994
1487 994
1488 994
1489 994
1490 994
1491 994
1492 994
1493 994
1494 994
1495 994
1496 994
1497 994
1498 994
1499 994
1500 994
1501 994
1502 994
1503 994
1504 994
1505 994
1506 994
1507 994
1508 994
1509 994
1510 994
1511 994
1512 994
1513 994
1514 994
1515 994
1516 994
1517 994
1518 994
1519 994
1520 994
1521 994
1522 994
1523 994
1524 994
1525 994
1526 994
1527 994
1528 994
1529 994
1530 994
1531 994
1532 994
1533 994
1458 995
1459 995
1460 995
1461 995
1462 995
1463 995
1464 995
1465 995
1466 995
1467 995
1468 995
1469 995
1470 995
1471 995
1472 995
1473 995
1474 995
1475 995
1476 995
1477 995
1478 995
1479 995
1480 995
1481 995
1482 995
1483 995
1484 995
1485 995
1486 995
1487 995
1488 995
1489 995
1490 995
1491 995
1492 995
1493 995
1494 995
1495 995
1496 995
1497 995
1498 995
1499 995
1500 995
1501 995
1502 995
1503 995
1504 995
1505 995
1506 995
1507 995
1508 995
1509 995
1510 995
1511 995
1512 995
1513 995
1514 995
1515 995
1516 995
1517 995
1518 995
1519 995
1520 995
1521 995
1522 995
1523 995
1524 995
1525 995
1526 995
1527 995
1528 995
1529 995
1530 995
1531 995
1532 995
1533 995
1458 996
1459 996
1460 996
1461 996
1462 996
1463 996
1464 996
1465 996
1466 996
1467 996
1468 996
1469 996
1470 996
1471 996
1472 996
1473 996
1474 996
1475 996
1476 996
1477 996
1478 996
1479 996
1480 996
1481 996
1482 996
1483 996
1484 996
1485 996
1486 996
1487 996
1488 996
1489 996
1490 996
1491 996
1492 996
1493 996
1494 996
1495 996
1496 996
1497 996
1498 996
1499 996
1500 996
1501 996
1502 996
1503 996
1504 996
1505 996
1506 996
1507 996
1508 996
1509 996
1510 996
1511 996
1512 996
1513 996
1514 996
1515 996
1516 996
1517 996
1518 996
1519 996
1520 996
1521 996
1522 996
1523 996
1524 996
1525 996
1526 996
1527 996
1528 996
1529 996
1530 996
1531 996
1532 996
1533 996
1458 997
1459 997
1460 997
1461 997
1462 997
1463 997
1464 997
1465 997
1466 997
1467 997
1468 997
1469 997
1470 997
1471 997
1472 997
1473 997
1474 997
1475 997
1476 997
1477 997
1478 997
1479 997
1480 997
1481 997
1482 997
1483 997
1484 997
1485 997
1486 997
1487 997
1488 997
1489 997
1490 997
1491 997
1492 997
1493 997
1494 997
1495 997
1496 997
1497 997
1498 997
1499 997
1500 997
1501 997
1502 997
1503 997
1504 997
1505 997
1506 997
1507 997
1508 997
1509 997
1510 997
1511 997
1512 997
1513 997
1514 997
1515 997
1516 997
1517 997
1518 997
1519 997
1520 997
1521 997
1522 997
1523 997
1524 997
1525 997
1526 997
1527 997
1528 997
1529 997
1530 997
1531 997
1532 997
1533 997
1458 998
1459 998
1460 998
1461 998
1462 998
1463 998
1464 998
1465 998
1466 998
1467 998
1468 998
1469 998
1470 998
1471 998
1472 998
1473 998
1474 998
1475 998
1476 998
1477 998
1478 998
1479 998
1480 998
1481 998
1482 998
1483 998
1484 998
1485 998
1486 998
1487 998
1488 998
1489 998
1490 998
1491 998
1492 998
1493 998
1494 998
1495 998
1496 998
1497 998
1498 998
1499 998
1500 998
1501 998
1502 998
1503 998
1504 998
1505 998
1506 998
1507 998
1508 998
1509 998
1510 998
1511 998
1512 998
1513 998
1514 998
1515 998
1516 998
1517 998
1518 998
1519 998
1520 998
1521 998
1522 998
1523 998
1524 998
1525 998
1526 998
1527 998
1528 998
1529 998
1530 998
1531 998
1532 998
1533 998
1458 999
1459 999
1460 999
1461 999
1462 999
1463 999
1464 999
1465 999
1466 999
1467 999
1468 999
1469 999
1470 999
1471 999
1472 999
1473 999
1474 999
1475 999
1476 999
1477 999
1478 999
1479 999
1480 999
1481 999
1482 999
1483 999
1484 999
1485 999
1486 999
1487 999
1488 999
1489 999
1490 999
1491 999
1492 999
1493 999
1494 999
1495 999
1496 999
1497 999
1498 999
1499 999
1500 999
1501 999
1502 999
1503 999
1504 999
1505 999
1506 999
1507 999
1508 999
1509 999
1510 999
1511 999
1512 999
1513 999
1514 999
1515 999
1516 999
1517 999
1518 999
1519 999
1520 999
1521 999
1522 999
1523 999
1524 999
1525 999
1526 999
1527 999
1528 999
1529 999
1530 999
1531 999
1532 999
1533 999
1458 1000
1459 1000
1460 1000
1461 1000
1462 1000
1463 1000
1464 1000
1465 1000
1466 1000
1467 1000
1468 1000
1469 1000
1470 1000
1471 1000
1472 1000
1473 1000
1474 1000
1475 1000
1476 1000
1477 1000
1478 1000
1479 1000
1480 1000
1481 1000
1482 1000
1483 1000
1484 1000
1485 1000
1486 1000
1487 1000
1488 1000
1489 1000
1490 1000
1491 1000
1492 1000
1493 1000
1494 1000
1495 1000
1496 1000
1497 1000
1498 1000
1499 1000
1500 1000
1501 1000
1502 1000
1503 1000
1504 1000
1505 1000
1506 1000
1507 1000
1508 1000
1509 1000
1510 1000
1511 1000
1512 1000
1513 1000
1514 1000
1515 1000
1516 1000
1517 1000
1518 1000
1519 1000
1520 1000
1521 1000
1522 1000
1523 1000
1524 1000
1525 1000
1526 1000
1527 1000
1528 1000
1529 1000
1530 1000
1531 1000
1532 1000
1533 1000
1458 1001
1459 1001
1460 1001
1461 1001
1462 1001
1463 1001
1464 1001
1465 1001
1466 1001
1467 1001
1468 1001
1469 1001
1470 1001
1471 1001
1472 1001
1473 1001
1474 1001
1475 1001
1476 1001
1477 1001
1478 1001
1479 1001
1480 1001
1481 1001
1482 1001
1483 1001
1484 1001
1485 1001
1486 1001
1487 1001
1488 1001
1489 1001
1490 1001
1491 1001
1492 1001
1493 1001
1494 1001
1495 1001
1496 1001
1497 1001
1498 1001
1499 1001
1500 1001
1501 1001
1502 1001
1503 1001
1504 1001
1505 1001
1506 1001
1507 1001
1508 1001
1509 1001
1510 1001
1511 1001
1512 1001
1513 1001
1514 1001
1515 1001
1516 1001
1517 1001
1518 1001
1519 1001
1520 1001
1521 1001
1522 1001
1523 1001
1524 1001
1525 1001
1526 1001
1527 1001
1528 1001
1529 1001
1530 1001
1531 1001
1532 1001
1533 1001
1458 1002
1459 1002
1460 1002
1461 1002
1462 1002
1463 1002
1464 1002
1465 1002
1466 1002
1467 1002
1468 1002
1469 1002
1470 1002
1471 1002
1472 1002
1473 1002
1474 1002
1475 1002
1476 1002
1477 1002
1478 1002
1479 1002
1480 1002
1481 1002
1482 1002
1483 1002
1484 1002
1485 1002
1486 1002
1487 1002
1488 1002
1489 1002
1490 1002
1491 1002
1492 1002
1493 1002
1494 1002
1495 1002
1496 1002
1497 1002
1498 1002
1499 1002
1500 1002
1501 1002
1502 1002
1503 1002
1504 1002
1505 1002
1506 1002
1507 1002
1508 1002
1509 1002
1510 1002
1511 1002
1512 1002
1513 1002
1514 1002
1515 1002
1516 1002
1517 1002
1518 1002
1519 1002
1520 1002
1521 1002
1522 1002
1523 1002
1524 1002
1525 1002
1526 1002
1527 1002
1528 1002
1529 1002
1530 1002
1531 1002
1532 1002
1533 1002
1458 1003
1459 1003
1460 1003
1461 1003
1462 1003
1463 1003
1464 1003
1465 1003
1466 1003
1467 1003
1468 1003
1469 1003
1470 1003
1471 1003
1472 1003
1473 1003
1474 1003
1475 1003
1476 1003
1477 1003
1478 1003
1479 1003
1480 1003
1481 1003
1482 1003
1483 1003
1484 1003
1485 1003
1486 1003
1487 1003
1488 1003
1489 1003
1490 1003
1491 1003
1492 1003
1493 1003
1494 1003
1495 1003
1496 1003
1497 1003
1498 1003
1499 1003
1500 1003
1501 1003
1502 1003
1503 1003
1504 1003
1505 1003
1506 1003
1507 1003
1508 1003
1509 1003
1510 1003
1511 1003
1512 1003
1513 1003
1514 1003
1515 1003
1516 1003
1517 1003
1518 1003
1519 1003
1520 1003
1521 1003
1522 1003
1523 1003
1524 1003
1525 1003
1526 1003
1527 1003
1528 1003
1529 1003
1530 1003
1531 1003
1532 1003
1533 1003
1458 1004
1459 1004
1460 1004
1461 1004
1462 1004
1463 1004
1464 1004
1465 1004
1466 1004
1467 1004
1468 1004
1469 1004
1470 1004
1471 1004
1472 1004
1473 1004
1474 1004
1475 1004
1476 1004
1477 1004
1478 1004
1479 1004
1480 1004
1481 1004
1482 1004
1483 1004
1484 1004
1485 1004
1486 1004
1487 1004
1488 1004
1489 1004
1490 1004
1491 1004
1492 1004
1493 1004
1494 1004
1495 1004
1496 1004
1497 1004
1498 1004
1499 1004
1500 1004
1501 1004
1502 1004
1503 1004
1504 1004
1505 1004
1506 1004
1507 1004
1508 1004
1509 1004
1510 1004
1511 1004
1512 1004
1513 1004
1514 1004
1515 1004
1516 1004
1517 1004
1518 1004
1519 1004
1520 1004
1521 1004
1522 1004
1523 1004
1524 1004
1525 1004
1526 1004
1527 1004
1528 1004
1529 1004
1530 1004
1531 1004
1532 1004
1533 1004
1458 1005
1459 1005
1460 1005
1461 1005
1462 1005
1463 1005
1464 1005
1465 1005
1466 1005
1467 1005
1468 1005
1469 1005
1470 1005
1471 1005
1472 1005
1473 1005
1474 1005
1475 1005
1476 1005
1477 1005
1478 1005
1479 1005
1480 1005
1481 1005
1482 1005
1483 1005
1484 1005
1485 1005
1486 1005
1487 1005
1488 1005
1489 1005
1490 1005
1491 1005
1492 1005
1493 1005
1494 1005
1495 1005
1496 1005
1497 1005
1498 1005
1499 1005
1500 1005
1501 1005
1502 1005
1503 1005
1504 1005
1505 1005
1506 1005
1507 1005
1508 1005
1509 1005
1510 1005
1511 1005
1512 1005
1513 1005
1514 1005
1515 1005
1516 1005
1517 1005
1518 1005
1519 1005
1520 1005
1521 1005
1522 1005
1523 1005
1524 1005
1525 1005
1526 1005
1527 1005
1528 1005
1529 1005
1530 1005
1531 1005
1532 1005
1533 1005
1458 1006
1459 1006
1460 1006
1461 1006
1462 1006
1463 1006
1464 1006
1465 1006
1466 1006
1467 1006
1468 1006
1469 1006
1470 1006
1471 1006
1472 1006
1473 1006
1474 1006
1475 1006
1476 1006
1477 1006
1478 1006
1479 1006
1480 1006
1481 1006
1482 1006
1483 1006
1484 1006
1485 1006
1486 1006
1487 1006
1488 1006
1489 1006
1490 1006
1491 1006
1492 1006
1493 1006
1494 1006
1495 1006
1496 1006
1497 1006
1498 1006
1499 1006
1500 1006
1501 1006
1502 1006
1503 1006
1504 1006
1505 1006
1506 1006
1507 1006
1508 1006
1509 1006
1510 1006
1511 1006
1512 1006
1513 1006
1514 1006
1515 1006
1516 1006
1517 1006
1518 1006
1519 1006
1520 1006
1521 1006
1522 1006
1523 1006
1524 1006
1525 1006
1526 1006
1527 1006
1528 1006
1529 1006
1530 1006
1531 1006
1532 1006
1533 1006
1458 1007
1459 1007
1460 1007
1461 1007
1462 1007
1463 1007
1464 1007
1465 1007
1466 1007
1467 1007
1468 1007
1469 1007
1470 1007
1471 1007
1472 1007
1473 1007
1474 1007
1475 1007
1476 1007
1477 1007
1478 1007
1479 1007
1480 1007
1481 1007
1482 1007
1483 1007
1484 1007
1485 1007
1486 1007
1487 1007
1488 1007
1489 1007
1490 1007
1491 1007
1492 1007
1493 1007
1494 1007
1495 1007
1496 1007
1497 1007
1498 1007
1499 1007
1500 1007
1501 1007
1502 1007
1503 1007
1504 1007
1505 1007
1506 1007
1507 1007
1508 1007
1509 1007
1510 1007
1511 1007
1512 1007
1513 1007
1514 1007
1515 1007
1516 1007
1517 1007
1518 1007
1519 1007
1520 1007
1521 1007
1522 1007
1523 1007
1524 1007
1525 1007
1526 1007
1527 1007
1528 1007
1529 1007
1530 1007
1531 1007
1532 1007
1533 1007
1458 1008
1459 1008
1460 1008
1461 1008
1462 1008
1463 1008
1464 1008
1465 1008
1466 1008
1467 1008
1468 1008
1469 1008
1470 1008
1471 1008
1472 1008
1473 1008
1474 1008
1475 1008
1476 1008
1477 1008
1478 1008
1479 1008
1480 1008
1481 1008
1482 1008
1483 1008
1484 1008
1485 1008
1486 1008
1487 1008
1488 1008
1489 1008
1490 1008
1491 1008
1492 1008
1493 1008
1494 1008
1495 1008
1496 1008
1497 1008
1498 1008
1499 1008
1500 1008
1501 1008
1502 1008
1503 1008
1504 1008
1505 1008
1506 1008
1507 1008
1508 1008
1509 1008
1510 1008
1511 1008
1512 1008
1513 1008
1514 1008
1515 1008
1516 1008
1517 1008
1518 1008
1519 1008
1520 1008
1521 1008
1522 1008
1523 1008
1524 1008
1525 1008
1526 1008
1527 1008
1528 1008
1529 1008
1530 1008
1531 1008
1532 1008
1533 1008
1458 1009
1459 1009
1460 1009
1461 1009
1462 1009
1463 1009
1464 1009
1465 1009
1466 1009
1467 1009
1468 1009
1469 1009
1470 1009
1471 1009
1472 1009
1473 1009
1474 1009
1475 1009
1476 1009
1477 1009
1478 1009
1479 1009
1480 1009
1481 1009
1482 1009
1483 1009
1484 1009
1485 1009
1486 1009
1487 1009
1488 1009
1489 1009
1490 1009
1491 1009
1492 1009
1493 1009
1494 1009
1495 1009
1496 1009
1497 1009
1498 1009
1499 1009
1500 1009
1501 1009
1502 1009
1503 1009
1504 1009
1505 1009
1506 1009
1507 1009
1508 1009
1509 1009
1510 1009
1511 1009
1512 1009
1513 1009
1514 1009
1515 1009
1516 1009
1517 1009
1518 1009
1519 1009
1520 1009
1521 1009
1522 1009
1523 1009
1524 1009
1525 1009
1526 1009
1527 1009
1528 1009
1529 1009
1530 1009
1531 1009
1532 1009
1533 1009
1458 1010
1459 1010
1460 1010
1461 1010
1462 1010
1463 1010
1464 1010
1465 1010
1466 1010
1467 1010
1468 1010
1469 1010
1470 1010
1471 1010
1472 1010
1473 1010
1474 1010
1475 1010
1476 1010
1477 1010
1478 1010
1479 1010
1480 1010
1481 1010
1482 1010
1483 1010
1484 1010
1485 1010
1486 1010
1487 1010
1488 1010
1489 1010
1490 1010
1491 1010
1492 1010
1493 1010
1494 1010
1495 1010
1496 1010
1497 1010
1498 1010
1499 1010
1500 1010
1501 1010
1502 1010
1503 1010
1504 1010
1505 1010
1506 1010
1507 1010
1508 1010
1509 1010
1510 1010
1511 1010
1512 1010
1513 1010
1514 1010
1515 1010
1516 1010
1517 1010
1518 1010
1519 1010
1520 1010
1521 1010
1522 1010
1523 1010
1524 1010
1525 1010
1526 1010
1527 1010
1528 1010
1529 1010
1530 1010
1531 1010
1532 1010
1533 1010
1458 1011
1459 1011
1460 1011
1461 1011
1462 1011
1463 1011
1464 1011
1465 1011
1466 1011
1467 1011
1468 1011
1469 1011
1470 1011
1471 1011
1472 1011
1473 1011
1474 1011
1475 1011
1476 1011
1477 1011
1478 1011
1479 1011
1480 1011
1481 1011
1482 1011
1483 1011
1484 1011
1485 1011
1486 1011
1487 1011
1488 1011
1489 1011
1490 1011
1491 1011
1492 1011
1493 1011
1494 1011
1495 1011
1496 1011
1497 1011
1498 1011
1499 1011
1500 1011
1501 1011
1502 1011
1503 1011
1504 1011
1505 1011
1506 1011
1507 1011
1508 1011
1509 1011
1510 1011
1511 1011
1512 1011
1513 1011
1514 1011
1515 1011
1516 1011
1517 1011
1518 1011
1519 1011
1520 1011
1521 1011
1522 1011
1523 1011
1524 1011
1525 1011
1526 1011
1527 1011
1528 1011
1529 1011
1530 1011
1531 1011
1532 1011
1533 1011
1458 1012
1459 1012
1460 1012
1461 1012
1462 1012
1463 1012
1464 1012
1465 1012
1466 1012
1467 1012
1468 1012
1469 1012
1470 1012
1471 1012
1472 1012
1473 1012
1474 1012
1475 1012
1476 1012
1477 1012
1478 1012
1479 1012
1480 1012
1481 1012
1482 1012
1483 1012
1484 1012
1485 1012
1486 1012
1487 1012
1488 1012
1489 1012
1490 1012
1491 1012
1492 1012
1493 1012
1494 1012
1495 1012
1496 1012
1497 1012
1498 1012
1499 1012
1500 1012
1501 1012
1502 1012
1503 1012
1504 1012
1505 1012
1506 1012
1507 1012
1508 1012
1509 1012
1510 1012
1511 1012
1512 1012
1513 1012
1514 1012
1515 1012
1516 1012
1517 1012
1518 1012
1519 1012
1520 1012
1521 1012
1522 1012
1523 1012
1524 1012
1525 1012
1526 1012
1527 1012
1528 1012
1529 1012
1530 1012
1531 1012
1532 1012
1533 1012
1458 1013
1459 1013
1460 1013
1461 1013
1462 1013
1463 1013
1464 1013
1465 1013
1466 1013
1467 1013
1468 1013
1469 1013
1470 1013
1471 1013
1472 1013
1473 1013
1474 1013
1475 1013
1476 1013
1477 1013
1478 1013
1479 1013
1480 1013
1481 1013
1482 1013
1483 1013
1484 1013
1485 1013
1486 1013
1487 1013
1488 1013
1489 1013
1490 1013
1491 1013
1492 1013
1493 1013
1494 1013
1495 1013
1496 1013
1497 1013
1498 1013
1499 1013
1500 1013
1501 1013
1502 1013
1503 1013
1504 1013
1505 1013
1506 1013
1507 1013
1508 1013
1509 1013
1510 1013
1511 1013
1512 1013
1513 1013
1514 1013
1515 1013
1516 1013
1517 1013
1518 1013
1519 1013
1520 1013
1521 1013
1522 1013
1523 1013
1524 1013
1525 1013
1526 1013
1527 1013
1528 1013
1529 1013
1530 1013
1531 1013
1532 1013
1533 1013
1458 1014
1459 1014
1460 1014
1461 1014
1462 1014
1463 1014
1464 1014
1465 1014
1466 1014
1467 1014
1468 1014
1469 1014
1470 1014
1471 1014
1472 1014
1473 1014
1474 1014
1475 1014
1476 1014
1477 1014
1478 1014
1479 1014
1480 1014
1481 1014
1482 1014
1483 1014
1484 1014
1485 1014
1486 1014
1487 1014
1488 1014
1489 1014
1490 1014
1491 1014
1492 1014
1493 1014
1494 1014
1495 1014
1496 1014
1497 1014
1498 1014
1499 1014
1500 1014
1501 1014
1502 1014
1503 1014
1504 1014
1505 1014
1506 1014
1507 1014
1508 1014
1509 1014
1510 1014
1511 1014
1512 1014
1513 1014
1514 1014
1515 1014
1516 1014
1517 1014
1518 1014
1519 1014
1520 1014
1521 1014
1522 1014
1523 1014
1524 1014
1525 1014
1526 1014
1527 1014
1528 1014
1529 1014
1530 1014
1531 1014
1532 1014
1533 1014
1458 1015
1459 1015
1460 1015
1461 1015
1462 1015
1463 1015
1464 1015
1465 1015
1466 1015
1467 1015
1468 1015
1469 1015
1470 1015
1471 1015
1472 1015
1473 1015
1474 1015
1475 1015
1476 1015
1477 1015
1478 1015
1479 1015
1480 1015
1481 1015
1482 1015
1483 1015
1484 1015
1485 1015
1486 1015
1487 1015
1488 1015
1489 1015
1490 1015
1491 1015
1492 1015
1493 1015
1494 1015
1495 1015
1496 1015
1497 1015
1498 1015
1499 1015
1500 1015
1501 1015
1502 1015
1503 1015
1504 1015
1505 1015
1506 1015
1507 1015
1508 1015
1509 1015
1510 1015
1511 1015
1512 1015
1513 1015
1514 1015
1515 1015
1516 1015
1517 1015
1518 1015
1519 1015
1520 1015
1521 1015
1522 1015
1523 1015
1524 1015
1525 1015
1526 1015
1527 1015
1528 1015
1529 1015
1530 1015
1531 1015
1532 1015
1533 1015
1458 1016
1459 1016
1460 1016
1461 1016
1462 1016
1463 1016
1464 1016
1465 1016
1466 1016
1467 1016
1468 1016
1469 1016
1470 1016
1471 1016
1472 1016
1473 1016
1474 1016
1475 1016
1476 1016
1477 1016
1478 1016
1479 1016
1480 1016
1481 1016
1482 1016
1483 1016
1484 1016
1485 1016
1486 1016
1487 1016
1488 1016
1489 1016
1490 1016
1491 1016
1492 1016
1493 1016
1494 1016
1495 1016
1496 1016
1497 1016
1498 1016
1499 1016
1500 1016
1501 1016
1502 1016
1503 1016
1504 1016
1505 1016
1506 1016
1507 1016
1508 1016
1509 1016
1510 1016
1511 1016
1512 1016
1513 1016
1514 1016
1515 1016
1516 1016
1517 1016
1518 1016
1519 1016
1520 1016
1521 1016
1522 1016
1523 1016
1524 1016
1525 1016
1526 1016
1527 1016
1528 1016
1529 1016
1530 1016
1531 1016
1532 1016
1533 1016
1458 1017
1459 1017
1460 1017
1461 1017
1462 1017
1463 1017
1464 1017
1465 1017
1466 1017
1467 1017
1468 1017
1469 1017
1470 1017
1471 1017
1472 1017
1473 1017
1474 1017
1475 1017
1476 1017
1477 1017
1478 1017
1479 1017
1480 1017
1481 1017
1482 1017
1483 1017
1484 1017
1485 1017
1486 1017
1487 1017
1488 1017
1489 1017
1490 1017
1491 1017
1492 1017
1493 1017
1494 1017
1495 1017
1496 1017
1497 1017
1498 1017
1499 1017
1500 1017
1501 1017
1502 1017
1503 1017
1504 1017
1505 1017
1506 1017
1507 1017
1508 1017
1509 1017
1510 1017
1511 1017
1512 1017
1513 1017
1514 1017
1515 1017
1516 1017
1517 1017
1518 1017
1519 1017
1520 1017
1521 1017
1522 1017
1523 1017
1524 1017
1525 1017
1526 1017
1527 1017
1528 1017
1529 1017
1530 1017
1531 1017
1532 1017
1533 1017
1458 1018
1459 1018
1460 1018
1461 1018
1462 1018
1463 1018
1464 1018
1465 1018
1466 1018
1467 1018
1468 1018
1469 1018
1470 1018
1471 1018
1472 1018
1473 1018
1474 1018
1475 1018
1476 1018
1477 1018
1478 1018
1479 1018
1480 1018
1481 1018
1482 1018
1483 1018
1484 1018
1485 1018
1486 1018
1487 1018
1488 1018
1489 1018
1490 1018
1491 1018
1492 1018
1493 1018
1494 1018
1495 1018
1496 1018
1497 1018
1498 1018
1499 1018
1500 1018
1501 1018
1502 1018
1503 1018
1504 1018
1505 1018
1506 1018
1507 1018
1508 1018
1509 1018
1510 1018
1511 1018
1512 1018
1513 1018
1514 1018
1515 1018
1516 1018
1517 1018
1518 1018
1519 1018
1520 1018
1521 1018
1522 1018
1523 1018
1524 1018
1525 1018
1526 1018
1527 1018
1528 1018
1529 1018
1530 1018
1531 1018
1532 1018
1533 1018
1458 1019
1459 1019
1460 1019
1461 1019
1462 1019
1463 1019
1464 1019
1465 1019
1466 1019
1467 1019
1468 1019
1469 1019
1470 1019
1471 1019
1472 1019
1473 1019
1474 1019
1475 1019
1476 1019
1477 1019
1478 1019
1479 1019
1480 1019
1481 1019
1482 1019
1483 1019
1484 1019
1485 1019
1486 1019
1487 1019
1488 1019
1489 1019
1490 1019
1491 1019
1492 1019
1493 1019
1494 1019
1495 1019
1496 1019
1497 1019
1498 1019
1499 1019
1500 1019
1501 1019
1502 1019
1503 1019
1504 1019
1505 1019
1506 1019
1507 1019
1508 1019
1509 1019
1510 1019
1511 1019
1512 1019
1513 1019
1514 1019
1515 1019
1516 1019
1517 1019
1518 1019
1519 1019
1520 1019
1521 1019
1522 1019
1523 1019
1524 1019
1525 1019
1526 1019
1527 1019
1528 1019
1529 1019
1530 1019
1531 1019
1532 1019
1533 1019
1458 1020
1459 1020
1460 1020
1461 1020
1462 1020
1463 1020
1464 1020
1465 1020
1466 1020
1467 1020
1468 1020
1469 1020
1470 1020
1471 1020
1472 1020
1473 1020
1474 1020
1475 1020
1476 1020
1477 1020
1478 1020
1479 1020
1480 1020
1481 1020
1482 1020
1483 1020
1484 1020
1485 1020
1486 1020
1487 1020
1488 1020
1489 1020
1490 1020
1491 1020
1492 1020
1493 1020
1494 1020
1495 1020
1496 1020
1497 1020
1498 1020
1499 1020
1500 1020
1501 1020
1502 1020
1503 1020
1504 1020
1505 1020
1506 1020
1507 1020
1508 1020
1509 1020
1510 1020
1511 1020
1512 1020
1513 1020
1514 1020
1515 1020
1516 1020
1517 1020
1518 1020
1519 1020
1520 1020
1521 1020
1522 1020
1523 1020
1524 1020
1525 1020
1526 1020
1527 1020
1528 1020
1529 1020
1530 1020
1531 1020
1532 1020
1533 1020
1578 1065
1579 1065
1580 1065
1581 1065
1582 1065
1583 1065
1584 1065
1585 1065
1586 1065
1587 1065
1588 1065
1589 1065
1590 1065
1591 1065
1592 1065
1593 1065
1594 1065
1595 1065
1596 1065
1597 1065
1598 1065
1599 1065
1600 1065
1601 1065
1602 1065
1603 1065
1604 1065
1605 1065
1606 1065
1607 1065
1608 1065
1609 1065
1610 1065
1611 1065
1612 1065
1613 1065
1614 1065
1615 1065
1616 1065
1617 1065
1618 1065
1619 1065
1620 1065
1621 1065
1622 1065
1623 1065
1624 1065
1625 1065
1626 1065
1627 1065
1628 1065
1629 1065
1630 1065
1631 1065
1632 1065
1633 1065
1634 1065
1635 1065
1636 1065
1637 1065
1638 1065
1639 1065
1640 1065
1641 1065
1642 1065
1643 1065
1644 1065
1645 1065
1646 1065
1647 1065
1648 1065
1649 1065
1650 1065
1651 1065
1652 1065
1653 1065
1578 1066
1579 1066
1580 1066
1581 1066
1582 1066
1583 1066
1584 1066
1585 1066
1586 1066
1587 1066
1588 1066
1589 1066
1590 1066
1591 1066
1592 1066
1593 1066
1594 1066
1595 1066
1596 1066
1597 1066
1598 1066
1599 1066
1600 1066
1601 1066
1602 1066
1603 1066
1604 1066
1605 1066
1606 1066
1607 1066
1608 1066
1609 1066
1610 1066
1611 1066
1612 1066
1613 1066
1614 1066
1615 1066
1616 1066
1617 1066
1618 1066
1619 1066
1620 1066
1621 1066
1622 1066
1623 1066
1624 1066
1625 1066
1626 1066
1627 1066
1628 1066
1629 1066
1630 1066
1631 1066
1632 1066
1633 1066
1634 1066
1635 1066
1636 1066
1637 1066
1638 1066
1639 1066
1640 1066
1641 1066
1642 1066
1643 1066
1644 1066
1645 1066
1646 1066
1647 1066
1648 1066
1649 1066
1650 1066
1651 1066
1652 1066
1653 1066
1578 1067
1579 1067
1580 1067
1581 1067
1582 1067
1583 1067
1584 1067
1585 1067
1586 1067
1587 1067
1588 1067
1589 1067
1590 1067
1591 1067
1592 1067
1593 1067
1594 1067
1595 1067
1596 1067
1597 1067
1598 1067
1599 1067
1600 1067
1601 1067
1602 1067
1603 1067
1604 1067
1605 1067
1606 1067
1607 1067
1608 1067
1609 1067
1610 1067
1611 1067
1612 1067
1613 1067
1614 1067
1615 1067
1616 1067
1617 1067
1618 1067
1619 1067
1620 1067
1621 1067
1622 1067
1623 1067
1624 1067
1625 1067
1626 1067
1627 1067
1628 1067
1629 1067
1630 1067
1631 1067
1632 1067
1633 1067
1634 1067
1635 1067
1636 1067
1637 1067
1638 1067
1639 1067
1640 1067
1641 1067
1642 1067
1643 1067
1644 1067
1645 1067
1646 1067
1647 1067
1648 1067
1649 1067
1650 1067
1651 1067
1652 1067
1653 1067
1578 1068
1579 1068
1580 1068
1581 1068
1582 1068
1583 1068
1584 1068
1585 1068
1586 1068
1587 1068
1588 1068
1589 1068
1590 1068
1591 1068
1592 1068
1593 1068
1594 1068
1595 1068
1596 1068
1597 1068
1598 1068
1599 1068
1600 1068
1601 1068
1602 1068
1603 1068
1604 1068
1605 1068
1606 1068
1607 1068
1608 1068
1609 1068
1610 1068
1611 1068
1612 1068
1613 1068
1614 1068
1615 1068
1616 1068
1617 1068
1618 1068
1619 1068
1620 1068
1621 1068
1622 1068
1623 1068
1624 1068
1625 1068
1626 1068
1627 1068
1628 1068
1629 1068
1630 1068
1631 1068
1632 1068
1633 1068
1634 1068
1635 1068
1636 1068
1637 1068
1638 1068
1639 1068
1640 1068
1641 1068
1642 1068
1643 1068
1644 1068
1645 1068
1646 1068
1647 1068
1648 1068
1649 1068
1650 1068
1651 1068
1652 1068
1653 1068
1578 1069
1579 1069
1580 1069
1581 1069
1582 1069
1583 1069
1584 1069
1585 1069
1586 1069
1587 1069
1588 1069
1589 1069
1590 1069
1591 1069
1592 1069
1593 1069
1594 1069
1595 1069
1596 1069
1597 1069
1598 1069
1599 1069
1600 1069
1601 1069
1602 1069
1603 1069
1604 1069
1605 1069
1606 1069
1607 1069
1608 1069
1609 1069
1610 1069
1611 1069
1612 1069
1613 1069
1614 1069
1615 1069
1616 1069
1617 1069
1618 1069
1619 1069
1620 1069
1621 1069
1622 1069
1623 1069
1624 1069
1625 1069
1626 1069
1627 1069
1628 1069
1629 1069
1630 1069
1631 1069
1632 1069
1633 1069
1634 1069
1635 1069
1636 1069
1637 1069
1638 1069
1639 1069
1640 1069
1641 1069
1642 1069
1643 1069
1644 1069
1645 1069
1646 1069
1647 1069
1648 1069
1649 1069
1650 1069
1651 1069
1652 1069
1653 1069
1578 1070
1579 1070
1580 1070
1581 1070
1582 1070
1583 1070
1584 1070
1585 1070
1586 1070
1587 1070
1588 1070
1589 1070
1590 1070
1591 1070
1592 1070
1593 1070
1594 1070
1595 1070
1596 1070
1597 1070
1598 1070
1599 1070
1600 1070
1601 1070
1602 1070
1603 1070
1604 1070
1605 1070
1606 1070
1607 1070
1608 1070
1609 1070
1610 1070
1611 1070
1612 1070
1613 1070
1614 1070
1615 1070
1616 1070
1617 1070
1618 1070
1619 1070
1620 1070
1621 1070
1622 1070
1623 1070
1624 1070
1625 1070
1626 1070
1627 1070
1628 1070
1629 1070
1630 1070
1631 1070
1632 1070
1633 1070
1634 1070
1635 1070
1636 1070
1637 1070
1638 1070
1639 1070
1640 1070
1641 1070
1642 1070
1643 1070
1644 1070
1645 1070
1646 1070
1647 1070
1648 1070
1649 1070
1650 1070
1651 1070
1652 1070
1653 1070
1578 1071
1579 1071
1580 1071
1581 1071
1582 1071
1583 1071
1584 1071
1585 1071
1586 1071
1587 1071
1588 1071
1589 1071
1590 1071
1591 1071
1592 1071
1593 1071
1594 1071
1595 1071
1596 1071
1597 1071
1598 1071
1599 1071
1600 1071
1601 1071
1602 1071
1603 1071
1604 1071
1605 1071
1606 1071
1607 1071
1608 1071
1609 1071
1610 1071
1611 1071
1612 1071
1613 1071
1614 1071
1615 1071
1616 1071
1617 1071
1618 1071
1619 1071
1620 1071
1621 1071
1622 1071
1623 1071
1624 1071
1625 1071
1626 1071
1627 1071
1628 1071
1629 1071
1630 1071
1631 1071
1632 1071
1633 1071
1634 1071
1635 1071
1636 1071
1637 1071
1638 1071
1639 1071
1640 1071
1641 1071
1642 1071
1643 1071
1644 1071
1645 1071
1646 1071
1647 1071
1648 1071
1649 1071
1650 1071
1651 1071
1652 1071
1653 1071
1578 1072
1579 1072
1580 1072
1581 1072
1582 1072
1583 1072
1584 1072
1585 1072
1586 1072
1587 1072
1588 1072
1589 1072
1590 1072
1591 1072
1592 1072
1593 1072
1594 1072
1595 1072
1596 1072
1597 1072
1598 1072
1599 1072
1600 1072
1601 1072
1602 1072
1603 1072
1604 1072
1605 1072
1606 1072
1607 1072
1608 1072
1609 1072
1610 1072
1611 1072
1612 1072
1613 1072
1614 1072
1615 1072
1616 1072
1617 1072
1618 1072
1619 1072
1620 1072
1621 1072
1622 1072
1623 1072
1624 1072
1625 1072
1626 1072
1627 1072
1628 1072
1629 1072
1630 1072
1631 1072
1632 1072
1633 1072
1634 1072
1635 1072
1636 1072
1637 1072
1638 1072
1639 1072
1640 1072
1641 1072
1642 1072
1643 1072
1644 1072
1645 1072
1646 1072
1647 1072
1648 1072
1649 1072
1650 1072
1651 1072
1652 1072
1653 1072
1578 1073
1579 1073
1580 1073
1581 1073
1582 1073
1583 1073
1584 1073
1585 1073
1586 1073
1587 1073
1588 1073
1589 1073
1590 1073
1591 1073
1592 1073
1593 1073
1594 1073
1595 1073
1596 1073
1597 1073
1598 1073
1599 1073
1600 1073
1601 1073
1602 1073
1603 1073
1604 1073
1605 1073
1606 1073
1607 1073
1608 1073
1609 1073
1610 1073
1611 1073
1612 1073
1613 1073
1614 1073
1615 1073
1616 1073
1617 1073
1618 1073
1619 1073
1620 1073
1621 1073
1622 1073
1623 1073
1624 1073
1625 1073
1626 1073
1627 1073
1628 1073
1629 1073
1630 1073
1631 1073
1632 1073
1633 1073
1634 1073
1635 1073
1636 1073
1637 1073
1638 1073
1639 1073
1640 1073
1641 1073
1642 1073
1643 1073
1644 1073
1645 1073
1646 1073
1647 1073
1648 1073
1649 1073
1650 1073
1651 1073
1652 1073
1653 1073
1578 1074
1579 1074
1580 1074
1581 1074
1582 1074
1583 1074
1584 1074
1585 1074
1586 1074
1587 1074
1588 1074
1589 1074
1590 1074
1591 1074
1592 1074
1593 1074
1594 1074
1595 1074
1596 1074
1597 1074
1598 1074
1599 1074
1600 1074
1601 1074
1602 1074
1603 1074
1604 1074
1605 1074
1606 1074
1607 1074
1608 1074
1609 1074
1610 1074
1611 1074
1612 1074
1613 1074
1614 1074
1615 1074
1616 1074
1617 1074
1618 1074
1619 1074
1620 1074
1621 1074
1622 1074
1623 1074
1624 1074
1625 1074
1626 1074
1627 1074
1628 1074
1629 1074
1630 1074
1631 1074
1632 1074
1633 1074
1634 1074
1635 1074
1636 1074
1637 1074
1638 1074
1639 1074
1640 1074
1641 1074
1642 1074
1643 1074
1644 1074
1645 1074
1646 1074
1647 1074
1648 1074
1649 1074
1650 1074
1651 1074
1652 1074
1653 1074
1578 1075
1579 1075
1580 1075
1581 1075
1582 1075
1583 1075
1584 1075
1585 1075
1586 1075
1587 1075
1588 1075
1589 1075
1590 1075
1591 1075
1592 1075
1593 1075
1594 1075
1595 1075
1596 1075
1597 1075
1598 1075
1599 1075
1600 1075
1601 1075
1602 1075
1603 1075
1604 1075
1605 1075
1606 1075
1607 1075
1608 1075
1609 1075
1610 1075
1611 1075
1612 1075
1613 1075
1614 1075
1615 1075
1616 1075
1617 1075
1618 1075
1619 1075
1620 1075
1621 1075
1622 1075
1623 1075
1624 1075
1625 1075
1626 1075
1627 1075
1628 1075
1629 1075
1630 1075
1631 1075
1632 1075
1633 1075
1634 1075
1635 1075
1636 1075
1637 1075
1638 1075
1639 1075
1640 1075
1641 1075
1642 1075
1643 1075
1644 1075
1645 1075
1646 1075
1647 1075
1648 1075
1649 1075
1650 1075
1651 1075
1652 1075
1653 1075
1578 1076
1579 1076
1580 1076
1581 1076
1582 1076
1583 1076
1584 1076
1585 1076
1586 1076
1587 1076
1588 1076
1589 1076
1590 1076
1591 1076
1592 1076
1593 1076
1594 1076
1595 1076
1596 1076
1597 1076
1598 1076
1599 1076
1600 1076
1601 1076
1602 1076
1603 1076
1604 1076
1605 1076
1606 1076
1607 1076
1608 1076
1609 1076
1610 1076
1611 1076
1612 1076
1613 1076
1614 1076
1615 1076
1616 1076
1617 1076
1618 1076
1619 1076
1620 1076
1621 1076
1622 1076
1623 1076
1624 1076
1625 1076
1626 1076
1627 1076
1628 1076
1629 1076
1630 1076
1631 1076
1632 1076
1633 1076
1634 1076
1635 1076
1636 1076
1637 1076
1638 1076
1639 1076
1640 1076
1641 1076
1642 1076
1643 1076
1644 1076
1645 1076
1646 1076
1647 1076
1648 1076
1649 1076
1650 1076
1651 1076
1652 1076
1653 1076
1578 1077
1579 1077
1580 1077
1581 1077
1582 1077
1583 1077
1584 1077
1585 1077
1586 1077
1587 1077
1588 1077
1589 1077
1590 1077
1591 1077
1592 1077
1593 1077
1594 1077
1595 1077
1596 1077
1597 1077
1598 1077
1599 1077
1600 1077
1601 1077
1602 1077
1603 1077
1604 1077
1605 1077
1606 1077
1607 1077
1608 1077
1609 1077
1610 1077
1611 1077
1612 1077
1613 1077
1614 1077
1615 1077
1616 1077
1617 1077
1618 1077
1619 1077
1620 1077
1621 1077
1622 1077
1623 1077
1624 1077
1625 1077
1626 1077
1627 1077
1628 1077
1629 1077
1630 1077
1631 1077
1632 1077
1633 1077
1634 1077
1635 1077
1636 1077
1637 1077
1638 1077
1639 1077
1640 1077
1641 1077
1642 1077
1643 1077
1644 1077
1645 1077
1646 1077
1647 1077
1648 1077
1649 1077
1650 1077
1651 1077
1652 1077
1653 1077
1578 1078
1579 1078
1580 1078
1581 1078
1582 1078
1583 1078
1584 1078
1585 1078
1586 1078
1587 1078
1588 1078
1589 1078
1590 1078
1591 1078
1592 1078
1593 1078
1594 1078
1595 1078
1596 1078
1597 1078
1598 1078
1599 1078
1600 1078
1601 1078
1602 1078
1603 1078
1604 1078
1605 1078
1606 1078
1607 1078
1608 1078
1609 1078
1610 1078
1611 1078
1612 1078
1613 1078
1614 1078
1615 1078
1616 1078
1617 1078
1618 1078
1619 1078
1620 1078
1621 1078
1622 1078
1623 1078
1624 1078
1625 1078
1626 1078
1627 1078
1628 1078
1629 1078
1630 1078
1631 1078
1632 1078
1633 1078
1634 1078
1635 1078
1636 1078
1637 1078
1638 1078
1639 1078
1640 1078
1641 1078
1642 1078
1643 1078
1644 1078
1645 1078
1646 1078
1647 1078
1648 1078
1649 1078
1650 1078
1651 1078
1652 1078
1653 1078
1578 1079
1579 1079
1580 1079
1581 1079
1582 1079
1583 1079
1584 1079
1585 1079
1586 1079
1587 1079
1588 1079
1589 1079
1590 1079
1591 1079
1592 1079
1593 1079
1594 1079
1595 1079
1596 1079
1597 1079
1598 1079
1599 1079
1600 1079
1601 1079
1602 1079
1603 1079
1604 1079
1605 1079
1606 1079
1607 1079
1608 1079
1609 1079
1610 1079
1611 1079
1612 1079
1613 1079
1614 1079
1615 1079
1616 1079
1617 1079
1618 1079
1619 1079
1620 1079
1621 1079
1622 1079
1623 1079
1624 1079
1625 1079
1626 1079
1627 1079
1628 1079
1629 1079
1630 1079
1631 1079
1632 1079
1633 1079
1634 1079
1635 1079
1636 1079
1637 1079
1638 1079
1639 1079
1640 1079
1641 1079
1642 1079
1643 1079
1644 1079
1645 1079
1646 1079
1647 1079
1648 1079
1649 1079
1650 1079
1651 1079
1652 1079
1653 1079
1578 1080
1579 1080
1580 1080
1581 1080
1582 1080
1583 1080
1584 1080
1585 1080
1586 1080
1587 1080
1588 1080
1589 1080
1590 1080
1591 1080
1592 1080
1593 1080
1594 1080
1595 1080
1596 1080
1597 1080
1598 1080
1599 1080
1600 1080
1601 1080
1602 1080
1603 1080
1604 1080
1605 1080
1606 1080
1607 1080
1608 1080
1609 1080
1610 1080
1611 1080
1612 1080
1613 1080
1614 1080
1615 1080
1616 1080
1617 1080
1618 1080
1619 1080
1620 1080
1621 1080
1622 1080
1623 1080
1624 1080
1625 1080
1626 1080
1627 1080
1628 1080
1629 1080
1630 1080
1631 1080
1632 1080
1633 1080
1634 1080
1635 1080
1636 1080
1637 1080
1638 1080
1639 1080
1640 1080
1641 1080
1642 1080
1643 1080
1644 1080
1645 1080
1646 1080
1647 1080
1648 1080
1649 1080
1650 1080
1651 1080
1652 1080
1653 1080
1578 1081
1579 1081
1580 1081
1581 1081
1582 1081
1583 1081
1584 1081
1585 1081
1586 1081
1587 1081
1588 1081
1589 1081
1590 1081
1591 1081
1592 1081
1593 1081
1594 1081
1595 1081
1596 1081
1597 1081
1598 1081
1599 1081
1600 1081
1601 1081
1602 1081
1603 1081
1604 1081
1605 1081
1606 1081
1607 1081
1608 1081
1609 1081
1610 1081
1611 1081
1612 1081
1613 1081
1614 1081
1615 1081
1616 1081
1617 1081
1618 1081
1619 1081
1620 1081
1621 1081
1622 1081
1623 1081
1624 1081
1625 1081
1626 1081
1627 1081
1628 1081
1629 1081
1630 1081
1631 1081
1632 1081
1633 1081
1634 1081
1635 1081
1636 1081
1637 1081
1638 1081
1639 1081
1640 1081
1641 1081
1642 1081
1643 1081
1644 1081
1645 1081
1646 1081
1647 1081
1648 1081
1649 1081
1650 1081
1651 1081
1652 1081
1653 1081
1578 1082
1579 1082
1580 1082
1581 1082
1582 1082
1583 1082
1584 1082
1585 1082
1586 1082
1587 1082
1588 1082
1589 1082
1590 1082
1591 1082
1592 1082
1593 1082
1594 1082
1595 1082
1596 1082
1597 1082
1598 1082
1599 1082
1600 1082
1601 1082
1602 1082
1603 1082
1604 1082
1605 1082
1606 1082
1607 1082
1608 1082
1609 1082
1610 1082
1611 1082
1612 1082
1613 1082
1614 1082
1615 1082
1616 1082
1617 1082
1618 1082
1619 1082
1620 1082
1621 1082
1622 1082
1623 1082
1624 1082
1625 1082
1626 1082
1627 1082
1628 1082
1629 1082
1630 1082
1631 1082
1632 1082
1633 1082
1634 1082
1635 1082
1636 1082
1637 1082
1638 1082
1639 1082
1640 1082
1641 1082
1642 1082
1643 1082
1644 1082
1645 1082
1646 1082
1647 1082
1648 1082
1649 1082
1650 1082
1651 1082
1652 1082
1653 1082
1578 1083
1579 1083
1580 1083
1581 1083
1582 1083
1583 1083
1584 1083
1585 1083
1586 1083
1587 1083
1588 1083
1589 1083
1590 1083
1591 1083
1592 1083
1593 1083
1594 1083
1595 1083
1596 1083
1597 1083
1598 1083
1599 1083
1600 1083
1601 1083
1602 1083
1603 1083
1604 1083
1605 1083
1606 1083
1607 1083
1608 1083
1609 1083
1610 1083
1611 1083
1612 1083
1613 1083
1614 1083
1615 1083
1616 1083
1617 1083
1618 1083
1619 1083
1620 1083
1621 1083
1622 1083
1623 1083
1624 1083
1625 1083
1626 1083
1627 1083
1628 1083
1629 1083
1630 1083
1631 1083
1632 1083
1633 1083
1634 1083
1635 1083
1636 1083
1637 1083
1638 1083
1639 1083
1640 1083
1641 1083
1642 1083
1643 1083
1644 1083
1645 1083
1646 1083
1647 1083
1648 1083
1649 1083
1650 1083
1651 1083
1652 1083
1653 1083
1578 1084
1579 1084
1580 1084
1581 1084
1582 1084
1583 1084
1584 1084
1585 1084
1586 1084
1587 1084
1588 1084
1589 1084
1590 1084
1591 1084
1592 1084
1593 1084
1594 1084
1595 1084
1596 1084
1597 1084
1598 1084
1599 1084
1600 1084
1601 1084
1602 1084
1603 1084
1604 1084
1605 1084
1606 1084
1607 1084
1608 1084
1609 1084
1610 1084
1611 1084
1612 1084
1613 1084
1614 1084
1615 1084
1616 1084
1617 1084
1618 1084
1619 1084
1620 1084
1621 1084
1622 1084
1623 1084
1624 1084
1625 1084
1626 1084
1627 1084
1628 1084
1629 1084
1630 1084
1631 1084
1632 1084
1633 1084
1634 1084
1635 1084
1636 1084
1637 1084
1638 1084
1639 1084
1640 1084
1641 1084
1642 1084
1643 1084
1644 1084
1645 1084
1646 1084
1647 1084
1648 1084
1649 1084
1650 1084
1651 1084
1652 1084
1653 1084
1578 1085
1579 1085
1580 1085
1581 1085
1582 1085
1583 1085
1584 1085
1585 1085
1586 1085
1587 1085
1588 1085
1589 1085
1590 1085
1591 1085
1592 1085
1593 1085
1594 1085
1595 1085
1596 1085
1597 1085
1598 1085
1599 1085
1600 1085
1601 1085
1602 1085
1603 1085
1604 1085
1605 1085
1606 1085
1607 1085
1608 1085
1609 1085
1610 1085
1611 1085
1612 1085
1613 1085
1614 1085
1615 1085
1616 1085
1617 1085
1618 1085
1619 1085
1620 1085
1621 1085
1622 1085
1623 1085
1624 1085
1625 1085
1626 1085
1627 1085
1628 1085
1629 1085
1630 1085
1631 1085
1632 1085
1633 1085
1634 1085
1635 1085
1636 1085
1637 1085
1638 1085
1639 1085
1640 1085
1641 1085
1642 1085
1643 1085
1644 1085
1645 1085
1646 1085
1647 1085
1648 1085
1649 1085
1650 1085
1651 1085
1652 1085
1653 1085
1578 1086
1579 1086
1580 1086
1581 1086
1582 1086
1583 1086
1584 1086
1585 1086
1586 1086
1587 1086
1588 1086
1589 1086
1590 1086
1591 1086
1592 1086
1593 1086
1594 1086
1595 1086
1596 1086
1597 1086
1598 1086
1599 1086
1600 1086
1601 1086
1602 1086
1603 1086
1604 1086
1605 1086
1606 1086
1607 1086
1608 1086
1609 1086
1610 1086
1611 1086
1612 1086
1613 1086
1614 1086
1615 1086
1616 1086
1617 1086
1618 1086
1619 1086
1620 1086
1621 1086
1622 1086
1623 1086
1624 1086
1625 1086
1626 1086
1627 1086
1628 1086
1629 1086
1630 1086
1631 1086
1632 1086
1633 1086
1634 1086
1635 1086
1636 1086
1637 1086
1638 1086
1639 1086
1640 1086
1641 1086
1642 1086
1643 1086
1644 1086
1645 1086
1646 1086
1647 1086
1648 1086
1649 1086
1650 1086
1651 1086
1652 1086
1653 1086
1578 1087
1579 1087
1580 1087
1581 1087
1582 1087
1583 1087
1584 1087
1585 1087
1586 1087
1587 1087
1588 1087
1589 1087
1590 1087
1591 1087
1592 1087
1593 1087
1594 1087
1595 1087
1596 1087
1597 1087
1598 1087
1599 1087
1600 1087
1601 1087
1602 1087
1603 1087
1604 1087
1605 1087
1606 1087
1607 1087
1608 1087
1609 1087
1610 1087
1611 1087
1612 1087
1613 1087
1614 1087
1615 1087
1616 1087
1617 1087
1618 1087
1619 1087
1620 1087
1621 1087
1622 1087
1623 1087
1624 1087
1625 1087
1626 1087
1627 1087
1628 1087
1629 1087
1630 1087
1631 1087
1632 1087
1633 1087
1634 1087
1635 1087
1636 1087
1637 1087
1638 1087
1639 1087
1640 1087
1641 1087
1642 1087
1643 1087
1644 1087
1645 1087
1646 1087
1647 1087
1648 1087
1649 1087
1650 1087
1651 1087
1652 1087
1653 1087
1578 1088
1579 1088
1580 1088
1581 1088
1582 1088
1583 1088
1584 1088
1585 1088
1586 1088
1587 1088
1588 1088
1589 1088
1590 1088
1591 1088
1592 1088
1593 1088
1594 1088
1595 1088
1596 1088
1597 1088
1598 1088
1599 1088
1600 1088
1601 1088
1602 1088
1603 1088
1604 1088
1605 1088
1606 1088
1607 1088
1608 1088
1609 1088
1610 1088
1611 1088
1612 1088
1613 1088
1614 1088
1615 1088
1616 1088
1617 1088
1618 1088
1619 1088
1620 1088
1621 1088
1622 1088
1623 1088
1624 1088
1625 1088
1626 1088
1627 1088
1628 1088
1629 1088
1630 1088
1631 1088
1632 1088
1633 1088
1634 1088
1635 1088
1636 1088
1637 1088
1638 1088
1639 1088
1640 1088
1641 1088
1642 1088
1643 1088
1644 1088
1645 1088
1646 1088
1647 1088
1648 1088
1649 1088
1650 1088
1651 1088
1652 1088
1653 1088
1578 1089
1579 1089
1580 1089
1581 1089
1582 1089
1583 1089
1584 1089
1585 1089
1586 1089
1587 1089
1588 1089
1589 1089
1590 1089
1591 1089
1592 1089
1593 1089
1594 1089
1595 1089
1596 1089
1597 1089
1598 1089
1599 1089
1600 1089
1601 1089
1602 1089
1603 1089
1604 1089
1605 1089
1606 1089
1607 1089
1608 1089
1609 1089
1610 1089
1611 1089
1612 1089
1613 1089
1614 1089
1615 1089
1616 1089
1617 1089
1618 1089
1619 1089
1620 1089
1621 1089
1622 1089
1623 1089
1624 1089
1625 1089
1626 1089
1627 1089
1628 1089
1629 1089
1630 1089
1631 1089
1632 1089
1633 1089
1634 1089
1635 1089
1636 1089
1637 1089
1638 1089
1639 1089
1640 1089
1641 1089
1642 1089
1643 1089
1644 1089
1645 1089
1646 1089
1647 1089
1648 1089
1649 1089
1650 1089
1651 1089
1652 1089
1653 1089
1578 1090
1579 1090
1580 1090
1581 1090
1582 1090
1583 1090
1584 1090
1585 1090
1586 1090
1587 1090
1588 1090
1589 1090
1590 1090
1591 1090
1592 1090
1593 1090
1594 1090
1595 1090
1596 1090
1597 1090
1598 1090
1599 1090
1600 1090
1601 1090
1602 1090
1603 1090
1604 1090
1605 1090
1606 1090
1607 1090
1608 1090
1609 1090
1610 1090
1611 1090
1612 1090
1613 1090
1614 1090
1615 1090
1616 1090
1617 1090
1618 1090
1619 1090
1620 1090
1621 1090
1622 1090
1623 1090
1624 1090
1625 1090
1626 1090
1627 1090
1628 1090
1629 1090
1630 1090
1631 1090
1632 1090
1633 1090
1634 1090
1635 1090
1636 1090
1637 1090
1638 1090
1639 1090
1640 1090
1641 1090
1642 1090
1643 1090
1644 1090
1645 1090
1646 1090
1647 1090
1648 1090
1649 1090
1650 1090
1651 1090
1652 1090
1653 1090
1578 1091
1579 1091
1580 1091
1581 1091
1582 1091
1583 1091
1584 1091
1585 1091
1586 1091
1587 1091
1588 1091
1589 1091
1590 1091
1591 1091
1592 1091
1593 1091
1594 1091
1595 1091
1596 1091
1597 1091
1598 1091
1599 1091
1600 1091
1601 1091
1602 1091
1603 1091
1604 1091
1605 1091
1606 1091
1607 1091
1608 1091
1609 1091
1610 1091
1611 1091
1612 1091
1613 1091
1614 1091
1615 1091
1616 1091
1617 1091
1618 1091
1619 1091
1620 1091
1621 1091
1622 1091
1623 1091
1624 1091
1625 1091
1626 1091
1627 1091
1628 1091
1629 1091
1630 1091
1631 1091
1632 1091
1633 1091
1634 1091
1635 1091
1636 1091
1637 1091
1638 1091
1639 1091
1640 1091
1641 1091
1642 1091
1643 1091
1644 1091
1645 1091
1646 1091
1647 1091
1648 1091
1649 1091
1650 1091
1651 1091
1652 1091
1653 1091
1578 1092
1579 1092
1580 1092
1581 1092
1582 1092
1583 1092
1584 1092
1585 1092
1586 1092
1587 1092
1588 1092
1589 1092
1590 1092
1591 1092
1592 1092
1593 1092
1594 1092
1595 1092
1596 1092
1597 1092
1598 1092
1599 1092
1600 1092
1601 1092
1602 1092
1603 1092
1604 1092
1605 1092
1606 1092
1607 1092
1608 1092
1609 1092
1610 1092
1611 1092
1612 1092
1613 1092
1614 1092
1615 1092
1616 1092
1617 1092
1618 1092
1619 1092
1620 1092
1621 1092
1622 1092
1623 1092
1624 1092
1625 1092
1626 1092
1627 1092
1628 1092
1629 1092
1630 1092
1631 1092
1632 1092
1633 1092
1634 1092
1635 1092
1636 1092
1637 1092
1638 1092
1639 1092
1640 1092
1641 1092
1642 1092
1643 1092
1644 1092
1645 1092
1646 1092
1647 1092
1648 1092
1649 1092
1650 1092
1651 1092
1652 1092
1653 1092
1578 1093
1579 1093
1580 1093
1581 1093
1582 1093
1583 1093
1584 1093
1585 1093
1586 1093
1587 1093
1588 1093
1589 1093
1590 1093
1591 1093
1592 1093
1593 1093
1594 1093
1595 1093
1596 1093
1597 1093
1598 1093
1599 1093
1600 1093
1601 1093
1602 1093
1603 1093
1604 1093
1605 1093
1606 1093
1607 1093
1608 1093
1609 1093
1610 1093
1611 1093
1612 1093
1613 1093
1614 1093
1615 1093
1616 1093
1617 1093
1618 1093
1619 1093
1620 1093
1621 1093
1622 1093
1623 1093
1624 1093
1625 1093
1626 1093
1627 1093
1628 1093
1629 1093
1630 1093
1631 1093
1632 1093
1633 1093
1634 1093
1635 1093
1636 1093
1637 1093
1638 1093
1639 1093
1640 1093
1641 1093
1642 1093
1643 1093
1644 1093
1645 1093
1646 1093
1647 1093
1648 1093
1649 1093
1650 1093
1651 1093
1652 1093
1653 1093
1578 1094
1579 1094
1580 1094
1581 1094
1582 1094
1583 1094
1584 1094
1585 1094
1586 1094
1587 1094
1588 1094
1589 1094
1590 1094
1591 1094
1592 1094
1593 1094
1594 1094
1595 1094
1596 1094
1597 1094
1598 1094
1599 1094
1600 1094
1601 1094
1602 1094
1603 1094
1604 1094
1605 1094
1606 1094
1607 1094
1608 1094
1609 1094
1610 1094
1611 1094
1612 1094
1613 1094
1614 1094
1615 1094
1616 1094
1617 1094
1618 1094
1619 1094
1620 1094
1621 1094
1622 1094
1623 1094
1624 1094
1625 1094
1626 1094
1627 1094
1628 1094
1629 1094
1630 1094
1631 1094
1632 1094
1633 1094
1634 1094
1635 1094
1636 1094
1637 1094
1638 1094
1639 1094
1640 1094
1641 1094
1642 1094
1643 1094
1644 1094
1645 1094
1646 1094
1647 1094
1648 1094
1649 1094
1650 1094
1651 1094
1652 1094
1653 1094
1578 1095
1579 1095
1580 1095
1581 1095
1582 1095
1583 1095
1584 1095
1585 1095
1586 1095
1587 1095
1588 1095
1589 1095
1590 1095
1591 1095
1592 1095
1593 1095
1594 1095
1595 1095
1596 1095
1597 1095
1598 1095
1599 1095
1600 1095
1601 1095
1602 1095
1603 1095
1604 1095
1605 1095
1606 1095
1607 1095
1608 1095
1609 1095
1610 1095
1611 1095
1612 1095
1613 1095
1614 1095
1615 1095
1616 1095
1617 1095
1618 1095
1619 1095
1620 1095
1621 1095
1622 1095
1623 1095
1624 1095
1625 1095
1626 1095
1627 1095
1628 1095
1629 1095
1630 1095
1631 1095
1632 1095
1633 1095
1634 1095
1635 1095
1636 1095
1637 1095
1638 1095
1639 1095
1640 1095
1641 1095
1642 1095
1643 1095
1644 1095
1645 1095
1646 1095
1647 1095
1648 1095
1649 1095
1650 1095
1651 1095
1652 1095
1653 1095
1578 1096
1579 1096
1580 1096
1581 1096
1582 1096
1583 1096
1584 1096
1585 1096
1586 1096
1587 1096
1588 1096
1589 1096
1590 1096
1591 1096
1592 1096
1593 1096
1594 1096
1595 1096
1596 1096
1597 1096
1598 1096
1599 1096
1600 1096
1601 1096
1602 1096
1603 1096
1604 1096
1605 1096
1606 1096
1607 1096
1608 1096
1609 1096
1610 1096
1611 1096
1612 1096
1613 1096
1614 1096
1615 1096
1616 1096
1617 1096
1618 1096
1619 1096
1620 1096
1621 1096
1622 1096
1623 1096
1624 1096
1625 1096
1626 1096
1627 1096
1628 1096
1629 1096
1630 1096
1631 1096
1632 1096
1633 1096
1634 1096
1635 1096
1636 1096
1637 1096
1638 1096
1639 1096
1640 1096
1641 1096
1642 1096
1643 1096
1644 1096
1645 1096
1646 1096
1647 1096
1648 1096
1649 1096
1650 1096
1651 1096
1652 1096
1653 1096
1578 1097
1579 1097
1580 1097
1581 1097
1582 1097
1583 1097
1584 1097
1585 1097
1586 1097
1587 1097
1588 1097
1589 1097
1590 1097
1591 1097
1592 1097
1593 1097
1594 1097
1595 1097
1596 1097
1597 1097
1598 1097
1599 1097
1600 1097
1601 1097
1602 1097
1603 1097
1604 1097
1605 1097
1606 1097
1607 1097
1608 1097
1609 1097
1610 1097
1611 1097
1612 1097
1613 1097
1614 1097
1615 1097
1616 1097
1617 1097
1618 1097
1619 1097
1620 1097
1621 1097
1622 1097
1623 1097
1624 1097
1625 1097
1626 1097
1627 1097
1628 1097
1629 1097
1630 1097
1631 1097
1632 1097
1633 1097
1634 1097
1635 1097
1636 1097
1637 1097
1638 1097
1639 1097
1640 1097
1641 1097
1642 1097
1643 1097
1644 1097
1645 1097
1646 1097
1647 1097
1648 1097
1649 1097
1650 1097
1651 1097
1652 1097
1653 1097
1578 1098
1579 1098
1580 1098
1581 1098
1582 1098
1583 1098
1584 1098
1585 1098
1586 1098
1587 1098
1588 1098
1589 1098
1590 1098
1591 1098
1592 1098
1593 1098
1594 1098
1595 1098
1596 1098
1597 1098
1598 1098
1599 1098
1600 1098
1601 1098
1602 1098
1603 1098
1604 1098
1605 1098
1606 1098
1607 1098
1608 1098
1609 1098
1610 1098
1611 1098
1612 1098
1613 1098
1614 1098
1615 1098
1616 1098
1617 1098
1618 1098
1619 1098
1620 1098
1621 1098
1622 1098
1623 1098
1624 1098
1625 1098
1626 1098
1627 1098
1628 1098
1629 1098
1630 1098
1631 1098
1632 1098
1633 1098
1634 1098
1635 1098
1636 1098
1637 1098
1638 1098
1639 1098
1640 1098
1641 1098
1642 1098
1643 1098
1644 1098
1645 1098
1646 1098
1647 1098
1648 1098
1649 1098
1650 1098
1651 1098
1652 1098
1653 1098
1578 1099
1579 1099
1580 1099
1581 1099
1582 1099
1583 1099
1584 1099
1585 1099
1586 1099
1587 1099
1588 1099
1589 1099
1590 1099
1591 1099
1592 1099
1593 1099
1594 1099
1595 1099
1596 1099
1597 1099
1598 1099
1599 1099
1600 1099
1601 1099
1602 1099
1603 1099
1604 1099
1605 1099
1606 1099
1607 1099
1608 1099
1609 1099
1610 1099
1611 1099
1612 1099
1613 1099
1614 1099
1615 1099
1616 1099
1617 1099
1618 1099
1619 1099
1620 1099
1621 1099
1622 1099
1623 1099
1624 1099
1625 1099
1626 1099
1627 1099
1628 1099
1629 1099
1630 1099
1631 1099
1632 1099
1633 1099
1634 1099
1635 1099
1636 1099
1637 1099
1638 1099
1639 1099
1640 1099
1641 1099
1642 1099
1643 1099
1644 1099
1645 1099
1646 1099
1647 1099
1648 1099
1649 1099
1650 1099
1651 1099
1652 1099
1653 1099
1578 1100
1579 1100
1580 1100
1581 1100
1582 1100
1583 1100
1584 1100
1585 1100
1586 1100
1587 1100
1588 1100
1589 1100
1590 1100
1591 1100
1592 1100
1593 1100
1594 1100
1595 1100
1596 1100
1597 1100
1598 1100
1599 1100
1600 1100
1601 1100
1602 1100
1603 1100
1604 1100
1605 1100
1606 1100
1607 1100
1608 1100
1609 1100
1610 1100
1611 1100
1612 1100
1613 1100
1614 1100
1615 1100
1616 1100
1617 1100
1618 1100
1619 1100
1620 1100
1621 1100
1622 1100
1623 1100
1624 1100
1625 1100
1626 1100
1627 1100
1628 1100
1629 1100
1630 1100
1631 1100
1632 1100
1633 1100
1634 1100
1635 1100
1636 1100
1637 1100
1638 1100
1639 1100
1640 1100
1641 1100
1642 1100
1643 1100
1644 1100
1645 1100
1646 1100
1647 1100
1648 1100
1649 1100
1650 1100
1651 1100
1652 1100
1653 1100
1578 1101
1579 1101
1580 1101
1581 1101
1582 1101
1583 1101
1584 1101
1585 1101
1586 1101
1587 1101
1588 1101
1589 1101
1590 1101
1591 1101
1592 1101
1593 1101
1594 1101
1595 1101
1596 1101
1597 1101
1598 1101
1599 1101
1600 1101
1601 1101
1602 1101
1603 1101
1604 1101
1605 1101
1606 1101
1607 1101
1608 1101
1609 1101
1610 1101
1611 1101
1612 1101
1613 1101
1614 1101
1615 1101
1616 1101
1617 1101
1618 1101
1619 1101
1620 1101
1621 1101
1622 1101
1623 1101
1624 1101
1625 1101
1626 1101
1627 1101
1628 1101
1629 1101
1630 1101
1631 1101
1632 1101
1633 1101
1634 1101
1635 1101
1636 1101
1637 1101
1638 1101
1639 1101
1640 1101
1641 1101
1642 1101
1643 1101
1644 1101
1645 1101
1646 1101
1647 1101
1648 1101
1649 1101
1650 1101
1651 1101
1652 1101
1653 1101
1698 1146
1699 1146
1700 1146
1701 1146
1702 1146
1703 1146
1704 1146
1705 1146
1706 1146
1707 1146
1708 1146
1709 1146
1710 1146
1711 1146
1712 1146
1713 1146
1714 1146
1715 1146
1716 1146
1717 1146
1718 1146
1719 1146
1720 1146
1721 1146
1722 1146
1723 1146
1724 1146
1725 1146
1726 1146
1727 1146
1728 1146
1729 1146
1730 1146
1731 1146
1732 1146
1733 1146
1734 1146
1735 1146
1736 1146
1737 1146
1738 1146
1739 1146
1740 1146
1741 1146
1742 1146
1743 1146
1744 1146
1745 1146
1746 1146
1747 1146
1748 1146
1749 1146
1750 1146
1751 1146
1752 1146
1753 1146
1754 1146
1755 1146
1756 1146
1757 1146
1758 1146
1759 1146
1760 1146
1761 1146
1762 1146
1763 1146
1764 1146
1765 1146
1766 1146
1767 1146
1768 1146
1769 1146
1770 1146
1771 1146
1772 1146
1773 1146
1698 1147
1699 1147
1700 1147
1701 1147
1702 1147
1703 1147
1704 1147
1705 1147
1706 1147
1707 1147
1708 1147
1709 1147
1710 1147
1711 1147
1712 1147
1713 1147
1714 1147
1715 1147
1716 1147
1717 1147
1718 1147
1719 1147
1720 1147
1721 1147
1722 1147
1723 1147
1724 1147
1725 1147
1726 1147
1727 1147
1728 1147
1729 1147
1730 1147
1731 1147
1732 1147
1733 1147
1734 1147
1735 1147
1736 1147
1737 1147
1738 1147
1739 1147
1740 1147
1741 1147
1742 1147
1743 1147
1744 1147
1745 1147
1746 1147
1747 1147
1748 1147
1749 1147
1750 1147
1751 1147
1752 1147
1753 1147
1754 1147
1755 1147
1756 1147
1757 1147
1758 1147
1759 1147
1760 1147
1761 1147
1762 1147
1763 1147
1764 1147
1765 1147
1766 1147
1767 1147
1768 1147
1769 1147
1770 1147
1771 1147
1772 1147
1773 1147
1698 1148
1699 1148
1700 1148
1701 1148
1702 1148
1703 1148
1704 1148
1705 1148
1706 1148
1707 1148
1708 1148
1709 1148
1710 1148
1711 1148
1712 1148
1713 1148
1714 1148
1715 1148
1716 1148
1717 1148
1718 1148
1719 1148
1720 1148
1721 1148
1722 1148
1723 1148
1724 1148
1725 1148
1726 1148
1727 1148
1728 1148
1729 1148
1730 1148
1731 1148
1732 1148
1733 1148
1734 1148
1735 1148
1736 1148
1737 1148
1738 1148
1739 1148
1740 1148
1741 1148
1742 1148
1743 1148
1744 1148
1745 1148
1746 1148
1747 1148
1748 1148
1749 1148
1750 1148
1751 1148
1752 1148
1753 1148
1754 1148
1755 1148
1756 1148
1757 1148
1758 1148
1759 1148
1760 1148
1761 1148
1762 1148
1763 1148
1764 1148
1765 1148
1766 1148
1767 1148
1768 1148
1769 1148
1770 1148
1771 1148
1772 1148
1773 1148
1698 1149
1699 1149
1700 1149
1701 1149
1702 1149
1703 1149
1704 1149
1705 1149
1706 1149
1707 1149
1708 1149
1709 1149
1710 1149
1711 1149
1712 1149
1713 1149
1714 1149
1715 1149
1716 1149
1717 1149
1718 1149
1719 1149
1720 1149
1721 1149
1722 1149
1723 1149
1724 1149
1725 1149
1726 1149
1727 1149
1728 1149
1729 1149
1730 1149
1731 1149
1732 1149
1733 1149
1734 1149
1735 1149
1736 1149
1737 1149
1738 1149
1739 1149
1740 1149
1741 1149
1742 1149
1743 1149
1744 1149
1745 1149
1746 1149
1747 1149
1748 1149
1749 1149
1750 1149
1751 1149
1752 1149
1753 1149
1754 1149
1755 1149
1756 1149
1757 1149
1758 1149
1759 1149
1760 1149
1761 1149
1762 1149
1763 1149
1764 1149
1765 1149
1766 1149
1767 1149
1768 1149
1769 1149
1770 1149
1771 1149
1772 1149
1773 1149
1698 1150
1699 1150
1700 1150
1701 1150
1702 1150
1703 1150
1704 1150
1705 1150
1706 1150
1707 1150
1708 1150
1709 1150
1710 1150
1711 1150
1712 1150
1713 1150
1714 1150
1715 1150
1716 1150
1717 1150
1718 1150
1719 1150
1720 1150
1721 1150
1722 1150
1723 1150
1724 1150
1725 1150
1726 1150
1727 1150
1728 1150
1729 1150
1730 1150
1731 1150
1732 1150
1733 1150
1734 1150
1735 1150
1736 1150
1737 1150
1738 1150
1739 1150
1740 1150
1741 1150
1742 1150
1743 1150
1744 1150
1745 1150
1746 1150
1747 1150
1748 1150
1749 1150
1750 1150
1751 1150
1752 1150
1753 1150
1754 1150
1755 1150
1756 1150
1757 1150
1758 1150
1759 1150
1760 1150
1761 1150
1762 1150
1763 1150
1764 1150
1765 1150
1766 1150
1767 1150
1768 1150
1769 1150
1770 1150
1771 1150
1772 1150
1773 1150
1698 1151
1699 1151
1700 1151
1701 1151
1702 1151
1703 1151
1704 1151
1705 1151
1706 1151
1707 1151
1708 1151
1709 1151
1710 1151
1711 1151
1712 1151
1713 1151
1714 1151
1715 1151
1716 1151
1717 1151
1718 1151
1719 1151
1720 1151
1721 1151
1722 1151
1723 1151
1724 1151
1725 1151
1726 1151
1727 1151
1728 1151
1729 1151
1730 1151
1731 1151
1732 1151
1733 1151
1734 1151
1735 1151
1736 1151
1737 1151
1738 1151
1739 1151
1740 1151
1741 1151
1742 1151
1743 1151
1744 1151
1745 1151
1746 1151
1747 1151
1748 1151
1749 1151
1750 1151
1751 1151
1752 1151
1753 1151
1754 1151
1755 1151
1756 1151
1757 1151
1758 1151
1759 1151
1760 1151
1761 1151
1762 1151
1763 1151
1764 1151
1765 1151
1766 1151
1767 1151
1768 1151
1769 1151
1770 1151
1771 1151
1772 1151
1773 1151
1698 1152
1699 1152
1700 1152
1701 1152
1702 1152
1703 1152
1704 1152
1705 1152
1706 1152
1707 1152
1708 1152
1709 1152
1710 1152
1711 1152
1712 1152
1713 1152
1714 1152
1715 1152
1716 1152
1717 1152
1718 1152
1719 1152
1720 1152
1721 1152
1722 1152
1723 1152
1724 1152
1725 1152
1726 1152
1727 1152
1728 1152
1729 1152
1730 1152
1731 1152
1732 1152
1733 1152
1734 1152
1735 1152
1736 1152
1737 1152
1738 1152
1739 1152
1740 1152
1741 1152
1742 1152
1743 1152
1744 1152
1745 1152
1746 1152
1747 1152
1748 1152
1749 1152
1750 1152
1751 1152
1752 1152
1753 1152
1754 1152
1755 1152
1756 1152
1757 1152
1758 1152
1759 1152
1760 1152
1761 1152
1762 1152
1763 1152
1764 1152
1765 1152
1766 1152
1767 1152
1768 1152
1769 1152
1770 1152
1771 1152
1772 1152
1773 1152
1698 1153
1699 1153
1700 1153
1701 1153
1702 1153
1703 1153
1704 1153
1705 1153
1706 1153
1707 1153
1708 1153
1709 1153
1710 1153
1711 1153
1712 1153
1713 1153
1714 1153
1715 1153
1716 1153
1717 1153
1718 1153
1719 1153
1720 1153
1721 1153
1722 1153
1723 1153
1724 1153
1725 1153
1726 1153
1727 1153
1728 1153
1729 1153
1730 1153
1731 1153
1732 1153
1733 1153
1734 1153
1735 1153
1736 1153
1737 1153
1738 1153
1739 1153
1740 1153
1741 1153
1742 1153
1743 1153
1744 1153
1745 1153
1746 1153
1747 1153
1748 1153
1749 1153
1750 1153
1751 1153
1752 1153
1753 1153
1754 1153
1755 1153
1756 1153
1757 1153
1758 1153
1759 1153
1760 1153
1761 1153
1762 1153
1763 1153
1764 1153
1765 1153
1766 1153
1767 1153
1768 1153
1769 1153
1770 1153
1771 1153
1772 1153
1773 1153
1698 1154
1699 1154
1700 1154
1701 1154
1702 1154
1703 1154
1704 1154
1705 1154
1706 1154
1707 1154
1708 1154
1709 1154
1710 1154
1711 1154
1712 1154
1713 1154
1714 1154
1715 1154
1716 1154
1717 1154
1718 1154
1719 1154
1720 1154
1721 1154
1722 1154
1723 1154
1724 1154
1725 1154
1726 1154
1727 1154
1728 1154
1729 1154
1730 1154
1731 1154
1732 1154
1733 1154
1734 1154
1735 1154
1736 1154
1737 1154
1738 1154
1739 1154
1740 1154
1741 1154
1742 1154
1743 1154
1744 1154
1745 1154
1746 1154
1747 1154
1748 1154
1749 1154
1750 1154
1751 1154
1752 1154
1753 1154
1754 1154
1755 1154
1756 1154
1757 1154
1758 1154
1759 1154
1760 1154
1761 1154
1762 1154
1763 1154
1764 1154
1765 1154
1766 1154
1767 1154
1768 1154
1769 1154
1770 1154
1771 1154
1772 1154
1773 1154
1698 1155
1699 1155
1700 1155
1701 1155
1702 1155
1703 1155
1704 1155
1705 1155
1706 1155
1707 1155
1708 1155
1709 1155
1710 1155
1711 1155
1712 1155
1713 1155
1714 1155
1715 1155
1716 1155
1717 1155
1718 1155
1719 1155
1720 1155
1721 1155
1722 1155
1723 1155
1724 1155
1725 1155
1726 1155
1727 1155
1728 1155
1729 1155
1730 1155
1731 1155
1732 1155
1733 1155
1734 1155
1735 1155
1736 1155
1737 1155
1738 1155
1739 1155
1740 1155
1741 1155
1742 1155
1743 1155
1744 1155
1745 1155
1746 1155
1747 1155
1748 1155
1749 1155
1750 1155
1751 1155
1752 1155
1753 1155
1754 1155
1755 1155
1756 1155
1757 1155
1758 1155
1759 1155
1760 1155
1761 1155
1762 1155
1763 1155
1764 1155
1765 1155
1766 1155
1767 1155
1768 1155
1769 1155
1770 1155
1771 1155
1772 1155
1773 1155
1698 1156
1699 1156
1700 1156
1701 1156
1702 1156
1703 1156
1704 1156
1705 1156
1706 1156
1707 1156
1708 1156
1709 1156
1710 1156
1711 1156
1712 1156
1713 1156
1714 1156
1715 1156
1716 1156
1717 1156
1718 1156
1719 1156
1720 1156
1721 1156
1722 1156
1723 1156
1724 1156
1725 1156
1726 1156
1727 1156
1728 1156
1729 1156
1730 1156
1731 1156
1732 1156
1733 1156
1734 1156
1735 1156
1736 1156
1737 1156
1738 1156
1739 1156
1740 1156
1741 1156
1742 1156
1743 1156
1744 1156
1745 1156
1746 1156
1747 1156
1748 1156
1749 1156
1750 1156
1751 1156
1752 1156
1753 1156
1754 1156
1755 1156
1756 1156
1757 1156
1758 1156
1759 1156
1760 1156
1761 1156
1762 1156
1763 1156
1764 1156
1765 1156
1766 1156
1767 1156
1768 1156
1769 1156
1770 1156
1771 1156
1772 1156
1773 1156
1698 1157
1699 1157
1700 1157
1701 1157
1702 1157
1703 1157
1704 1157
1705 1157
1706 1157
1707 1157
1708 1157
1709 1157
1710 1157
1711 1157
1712 1157
1713 1157
1714 1157
1715 1157
1716 1157
1717 1157
1718 1157
1719 1157
1720 1157
1721 1157
1722 1157
1723 1157
1724 1157
1725 1157
1726 1157
1727 1157
1728 1157
1729 1157
1730 1157
1731 1157
1732 1157
1733 1157
1734 1157
1735 1157
1736 1157
1737 1157
1738 1157
1739 1157
1740 1157
1741 1157
1742 1157
1743 1157
1744 1157
1745 1157
1746 1157
1747 1157
1748 1157
1749 1157
1750 1157
1751 1157
1752 1157
1753 1157
1754 1157
1755 1157
1756 1157
1757 1157
1758 1157
1759 1157
1760 1157
1761 1157
1762 1157
1763 1157
1764 1157
1765 1157
1766 1157
1767 1157
1768 1157
1769 1157
1770 1157
1771 1157
1772 1157
1773 1157
1698 1158
1699 1158
1700 1158
1701 1158
1702 1158
1703 1158
1704 1158
1705 1158
1706 1158
1707 1158
1708 1158
1709 1158
1710 1158
1711 1158
1712 1158
1713 1158
1714 1158
1715 1158
1716 1158
1717 1158
1718 1158
1719 1158
1720 1158
1721 1158
1722 1158
1723 1158
1724 1158
1725 1158
1726 1158
1727 1158
1728 1158
1729 1158
1730 1158
1731 1158
1732 1158
1733 1158
1734 1158
1735 1158
1736 1158
1737 1158
1738 1158
1739 1158
1740 1158
1741 1158
1742 1158
1743 1158
1744 1158
1745 1158
1746 1158
1747 1158
1748 1158
1749 1158
1750 1158
1751 1158
1752 1158
1753 1158
1754 1158
1755 1158
1756 1158
1757 1158
1758 1158
1759 1158
1760 1158
1761 1158
1762 1158
1763 1158
1764 1158
1765 1158
1766 1158
1767 1158
1768 1158
1769 1158
1770 1158
1771 1158
1772 1158
1773 1158
1698 1159
1699 1159
1700 1159
1701 1159
1702 1159
1703 1159
1704 1159
1705 1159
1706 1159
1707 1159
1708 1159
1709 1159
1710 1159
1711 1159
1712 1159
1713 1159
1714 1159
1715 1159
1716 1159
1717 1159
1718 1159
1719 1159
1720 1159
1721 1159
1722 1159
1723 1159
1724 1159
1725 1159
1726 1159
1727 1159
1728 1159
1729 1159
1730 1159
1731 1159
1732 1159
1733 1159
1734 1159
1735 1159
1736 1159
1737 1159
1738 1159
1739 1159
1740 1159
1741 1159
1742 1159
1743 1159
1744 1159
1745 1159
1746 1159
1747 1159
1748 1159
1749 1159
1750 1159
1751 1159
1752 1159
1753 1159
1754 1159
1755 1159
1756 1159
1757 1159
1758 1159
1759 1159
1760 1159
1761 1159
1762 1159
1763 1159
1764 1159
1765 1159
1766 1159
1767 1159
1768 1159
1769 1159
1770 1159
1771 1159
1772 1159
1773 1159
1698 1160
1699 1160
1700 1160
1701 1160
1702 1160
1703 1160
1704 1160
1705 1160
1706 1160
1707 1160
1708 1160
1709 1160
1710 1160
1711 1160
1712 1160
1713 1160
1714 1160
1715 1160
1716 1160
1717 1160
1718 1160
1719 1160
1720 1160
1721 1160
1722 1160
1723 1160
1724 1160
1725 1160
1726 1160
1727 1160
1728 1160
1729 1160
1730 1160
1731 1160
1732 1160
1733 1160
1734 1160
1735 1160
1736 1160
1737 1160
1738 1160
1739 1160
1740 1160
1741 1160
1742 1160
1743 1160
1744 1160
1745 1160
1746 1160
1747 1160
1748 1160
1749 1160
1750 1160
1751 1160
1752 1160
1753 1160
1754 1160
1755 1160
1756 1160
1757 1160
1758 1160
1759 1160
1760 1160
1761 1160
1762 1160
1763 1160
1764 1160
1765 1160
1766 1160
1767 1160
1768 1160
1769 1160
1770 1160
1771 1160
1772 1160
1773 1160
1698 1161
1699 1161
1700 1161
1701 1161
1702 1161
1703 1161
1704 1161
1705 1161
1706 1161
1707 1161
1708 1161
1709 1161
1710 1161
1711 1161
1712 1161
1713 1161
1714 1161
1715 1161
1716 1161
1717 1161
1718 1161
1719 1161
1720 1161
1721 1161
1722 1161
1723 1161
1724 1161
1725 1161
1726 1161
1727 1161
1728 1161
1729 1161
1730 1161
1731 1161
1732 1161
1733 1161
1734 1161
1735 1161
1736 1161
1737 1161
1738 1161
1739 1161
1740 1161
1741 1161
1742 1161
1743 1161
1744 1161
1745 1161
1746 1161
1747 1161
1748 1161
1749 1161
1750 1161
1751 1161
1752 1161
1753 1161
1754 1161
1755 1161
1756 1161
1757 1161
1758 1161
1759 1161
1760 1161
1761 1161
1762 1161
1763 1161
1764 1161
1765 1161
1766 1161
1767 1161
1768 1161
1769 1161
1770 1161
1771 1161
1772 1161
1773 1161
1698 1162
1699 1162
1700 1162
1701 1162
1702 1162
1703 1162
1704 1162
1705 1162
1706 1162
1707 1162
1708 1162
1709 1162
1710 1162
1711 1162
1712 1162
1713 1162
1714 1162
1715 1162
1716 1162
1717 1162
1718 1162
1719 1162
1720 1162
1721 1162
1722 1162
1723 1162
1724 1162
1725 1162
1726 1162
1727 1162
1728 1162
1729 1162
1730 1162
1731 1162
1732 1162
1733 1162
1734 1162
1735 1162
1736 1162
1737 1162
1738 1162
1739 1162
1740 1162
1741 1162
1742 1162
1743 1162
1744 1162
1745 1162
1746 1162
1747 1162
1748 1162
1749 1162
1750 1162
1751 1162
1752 1162
1753 1162
1754 1162
1755 1162
1756 1162
1757 1162
1758 1162
1759 1162
1760 1162
1761 1162
1762 1162
1763 1162
1764 1162
1765 1162
1766 1162
1767 1162
1768 1162
1769 1162
1770 1162
1771 1162
1772 1162
1773 1162
1698 1163
1699 1163
1700 1163
1701 1163
1702 1163
1703 1163
1704 1163
1705 1163
1706 1163
1707 1163
1708 1163
1709 1163
1710 1163
1711 1163
1712 1163
1713 1163
1714 1163
1715 1163
1716 1163
1717 1163
1718 1163
1719 1163
1720 1163
1721 1163
1722 1163
1723 1163
1724 1163
1725 1163
1726 1163
1727 1163
1728 1163
1729 1163
1730 1163
1731 1163
1732 1163
1733 1163
1734 1163
1735 1163
1736 1163
1737 1163
1738 1163
1739 1163
1740 1163
1741 1163
1742 1163
1743 1163
1744 1163
1745 1163
1746 1163
1747 1163
1748 1163
1749 1163
1750 1163
1751 1163
1752 1163
1753 1163
1754 1163
1755 1163
1756 1163
1757 1163
1758 1163
1759 1163
1760 1163
1761 1163
1762 1163
1763 1163
1764 1163
1765 1163
1766 1163
1767 1163
1768 1163
1769 1163
1770 1163
1771 1163
1772 1163
1773 1163
1698 1164
1699 1164
1700 1164
1701 1164
1702 1164
1703 1164
1704 1164
1705 1164
1706 1164
1707 1164
1708 1164
1709 1164
1710 1164
1711 1164
1712 1164
1713 1164
1714 1164
1715 1164
1716 1164
1717 1164
1718 1164
1719 1164
1720 1164
1721 1164
1722 1164
1723 1164
1724 1164
1725 1164
1726 1164
1727 1164
1728 1164
1729 1164
1730 1164
1731 1164
1732 1164
1733 1164
1734 1164
1735 1164
1736 1164
1737 1164
1738 1164
1739 1164
1740 1164
1741 1164
1742 1164
1743 1164
1744 1164
1745 1164
1746 1164
1747 1164
1748 1164
1749 1164
1750 1164
1751 1164
1752 1164
1753 1164
1754 1164
1755 1164
1756 1164
1757 1164
1758 1164
1759 1164
1760 1164
1761 1164
1762 1164
1763 1164
1764 1164
1765 1164
1766 1164
1767 1164
1768 1164
1769 1164
1770 1164
1771 1164
1772 1164
1773 1164
1698 1165
1699 1165
1700 1165
1701 1165
1702 1165
1703 1165
1704 1165
1705 1165
1706 1165
1707 1165
1708 1165
1709 1165
1710 1165
1711 1165
1712 1165
1713 1165
1714 1165
1715 1165
1716 1165
1717 1165
1718 1165
1719 1165
1720 1165
1721 1165
1722 1165
1723 1165
1724 1165
1725 1165
1726 1165
1727 1165
1728 1165
1729 1165
1730 1165
1731 1165
1732 1165
1733 1165
1734 1165
1735 1165
1736 1165
1737 1165
1738 1165
1739 1165
1740 1165
1741 1165
1742 1165
1743 1165
1744 1165
1745 1165
1746 1165
1747 1165
1748 1165
1749 1165
1750 1165
1751 1165
1752 1165
1753 1165
1754 1165
1755 1165
1756 1165
1757 1165
1758 1165
1759 1165
1760 1165
1761 1165
1762 1165
1763 1165
1764 1165
1765 1165
1766 1165
1767 1165
1768 1165
1769 1165
1770 1165
1771 1165
1772 1165
1773 1165
1698 1166
1699 1166
1700 1166
1701 1166
1702 1166
1703 1166
1704 1166
1705 1166
1706 1166
1707 1166
1708 1166
1709 1166
1710 1166
1711 1166
1712 1166
1713 1166
1714 1166
1715 1166
1716 1166
1717 1166
1718 1166
1719 1166
1720 1166
1721 1166
1722 1166
1723 1166
1724 1166
1725 1166
1726 1166
1727 1166
1728 1166
1729 1166
1730 1166
1731 1166
1732 1166
1733 1166
1734 1166
1735 1166
1736 1166
1737 1166
1738 1166
1739 1166
1740 1166
1741 1166
1742 1166
1743 1166
1744 1166
1745 1166
1746 1166
1747 1166
1748 1166
1749 1166
1750 1166
1751 1166
1752 1166
1753 1166
1754 1166
1755 1166
1756 1166
1757 1166
1758 1166
1759 1166
1760 1166
1761 1166
1762 1166
1763 1166
1764 1166
1765 1166
1766 1166
1767 1166
1768 1166
1769 1166
1770 1166
1771 1166
1772 1166
1773 1166
1698 1167
1699 1167
1700 1167
1701 1167
1702 1167
1703 1167
1704 1167
1705 1167
1706 1167
1707 1167
1708 1167
1709 1167
1710 1167
1711 1167
1712 1167
1713 1167
1714 1167
1715 1167
1716 1167
1717 1167
1718 1167
1719 1167
1720 1167
1721 1167
1722 1167
1723 1167
1724 1167
1725 1167
1726 1167
1727 1167
1728 1167
1729 1167
1730 1167
1731 1167
1732 1167
1733 1167
1734 1167
1735 1167
1736 1167
1737 1167
1738 1167
1739 1167
1740 1167
1741 1167
1742 1167
1743 1167
1744 1167
1745 1167
1746 1167
1747 1167
1748 1167
1749 1167
1750 1167
1751 1167
1752 1167
1753 1167
1754 1167
1755 1167
1756 1167
1757 1167
1758 1167
1759 1167
1760 1167
1761 1167
1762 1167
1763 1167
1764 1167
1765 1167
1766 1167
1767 1167
1768 1167
1769 1167
1770 1167
1771 1167
1772 1167
1773 1167
1698 1168
1699 1168
1700 1168
1701 1168
1702 1168
1703 1168
1704 1168
1705 1168
1706 1168
1707 1168
1708 1168
1709 1168
1710 1168
1711 1168
1712 1168
1713 1168
1714 1168
1715 1168
1716 1168
1717 1168
1718 1168
1719 1168
1720 1168
1721 1168
1722 1168
1723 1168
1724 1168
1725 1168
1726 1168
1727 1168
1728 1168
1729 1168
1730 1168
1731 1168
1732 1168
1733 1168
1734 1168
1735 1168
1736 1168
1737 1168
1738 1168
1739 1168
1740 1168
1741 1168
1742 1168
1743 1168
1744 1168
1745 1168
1746 1168
1747 1168
1748 1168
1749 1168
1750 1168
1751 1168
1752 1168
1753 1168
1754 1168
1755 1168
1756 1168
1757 1168
1758 1168
1759 1168
1760 1168
1761 1168
1762 1168
1763 1168
1764 1168
1765 1168
1766 1168
1767 1168
1768 1168
1769 1168
1770 1168
1771 1168
1772 1168
1773 1168
1698 1169
1699 1169
1700 1169
1701 1169
1702 1169
1703 1169
1704 1169
1705 1169
1706 1169
1707 1169
1708 1169
1709 1169
1710 1169
1711 1169
1712 1169
1713 1169
1714 1169
1715 1169
1716 1169
1717 1169
1718 1169
1719 1169
1720 1169
1721 1169
1722 1169
1723 1169
1724 1169
1725 1169
1726 1169
1727 1169
1728 1169
1729 1169
1730 1169
1731 1169
1732 1169
1733 1169
1734 1169
1735 1169
1736 1169
1737 1169
1738 1169
1739 1169
1740 1169
1741 1169
1742 1169
1743 1169
1744 1169
1745 1169
1746 1169
1747 1169
1748 1169
1749 1169
1750 1169
1751 1169
1752 1169
1753 1169
1754 1169
1755 1169
1756 1169
1757 1169
1758 1169
1759 1169
1760 1169
1761 1169
1762 1169
1763 1169
1764 1169
1765 1169
1766 1169
1767 1169
1768 1169
1769 1169
1770 1169
1771 1169
1772 1169
1773 1169
1698 1170
1699 1170
1700 1170
1701 1170
1702 1170
1703 1170
1704 1170
1705 1170
1706 1170
1707 1170
1708 1170
1709 1170
1710 1170
1711 1170
1712 1170
1713 1170
1714 1170
1715 1170
1716 1170
1717 1170
1718 1170
1719 1170
1720 1170
1721 1170
1722 1170
1723 1170
1724 1170
1725 1170
1726 1170
1727 1170
1728 1170
1729 1170
1730 1170
1731 1170
1732 1170
1733 1170
1734 1170
1735 1170
1736 1170
1737 1170
1738 1170
1739 1170
1740 1170
1741 1170
1742 1170
1743 1170
1744 1170
1745 1170
1746 1170
1747 1170
1748 1170
1749 1170
1750 1170
1751 1170
1752 1170
1753 1170
1754 1170
1755 1170
1756 1170
1757 1170
1758 1170
1759 1170
1760 1170
1761 1170
1762 1170
1763 1170
1764 1170
1765 1170
1766 1170
1767 1170
1768 1170
1769 1170
1770 1170
1771 1170
1772 1170
1773 1170
1698 1171
1699 1171
1700 1171
1701 1171
1702 1171
1703 1171
1704 1171
1705 1171
1706 1171
1707 1171
1708 1171
1709 1171
1710 1171
1711 1171
1712 1171
1713 1171
1714 1171
1715 1171
1716 1171
1717 1171
1718 1171
1719 1171
1720 1171
1721 1171
1722 1171
1723 1171
1724 1171
1725 1171
1726 1171
1727 1171
1728 1171
1729 1171
1730 1171
1731 1171
1732 1171
1733 1171
1734 1171
1735 1171
1736 1171
1737 1171
1738 1171
1739 1171
1740 1171
1741 1171
1742 1171
1743 1171
1744 1171
1745 1171
1746 1171
1747 1171
1748 1171
1749 1171
1750 1171
1751 1171
1752 1171
1753 1171
1754 1171
1755 1171
1756 1171
1757 1171
1758 1171
1759 1171
1760 1171
1761 1171
1762 1171
1763 1171
1764 1171
1765 1171
1766 1171
1767 1171
1768 1171
1769 1171
1770 1171
1771 1171
1772 1171
1773 1171
1698 1172
1699 1172
1700 1172
1701 1172
1702 1172
1703 1172
1704 1172
1705 1172
1706 1172
1707 1172
1708 1172
1709 1172
1710 1172
1711 1172
1712 1172
1713 1172
1714 1172
1715 1172
1716 1172
1717 1172
1718 1172
1719 1172
1720 1172
1721 1172
1722 1172
1723 1172
1724 1172
1725 1172
1726 1172
1727 1172
1728 1172
1729 1172
1730 1172
1731 1172
1732 1172
1733 1172
1734 1172
1735 1172
1736 1172
1737 1172
1738 1172
1739 1172
1740 1172
1741 1172
1742 1172
1743 1172
1744 1172
1745 1172
1746 1172
1747 1172
1748 1172
1749 1172
1750 1172
1751 1172
1752 1172
1753 1172
1754 1172
1755 1172
1756 1172
1757 1172
1758 1172
1759 1172
1760 1172
1761 1172
1762 1172
1763 1172
1764 1172
1765 1172
1766 1172
1767 1172
1768 1172
1769 1172
1770 1172
1771 1172
1772 1172
1773 1172
1698 1173
1699 1173
1700 1173
1701 1173
1702 1173
1703 1173
1704 1173
1705 1173
1706 1173
1707 1173
1708 1173
1709 1173
1710 1173
1711 1173
1712 1173
1713 1173
1714 1173
1715 1173
1716 1173
1717 1173
1718 1173
1719 1173
1720 1173
1721 1173
1722 1173
1723 1173
1724 1173
1725 1173
1726 1173
1727 1173
1728 1173
1729 1173
1730 1173
1731 1173
1732 1173
1733 1173
1734 1173
1735 1173
1736 1173
1737 1173
1738 1173
1739 1173
1740 1173
1741 1173
1742 1173
1743 1173
1744 1173
1745 1173
1746 1173
1747 1173
1748 1173
1749 1173
1750 1173
1751 1173
1752 1173
1753 1173
1754 1173
1755 1173
1756 1173
1757 1173
1758 1173
1759 1173
1760 1173
1761 1173
1762 1173
1763 1173
1764 1173
1765 1173
1766 1173
1767 1173
1768 1173
1769 1173
1770 1173
1771 1173
1772 1173
1773 1173
1698 1174
1699 1174
1700 1174
1701 1174
1702 1174
1703 1174
1704 1174
1705 1174
1706 1174
1707 1174
1708 1174
1709 1174
1710 1174
1711 1174
1712 1174
1713 1174
1714 1174
1715 1174
1716 1174
1717 1174
1718 1174
1719 1174
1720 1174
1721 1174
1722 1174
1723 1174
1724 1174
1725 1174
1726 1174
1727 1174
1728 1174
1729 1174
1730 1174
1731 1174
1732 1174
1733 1174
1734 1174
1735 1174
1736 1174
1737 1174
1738 1174
1739 1174
1740 1174
1741 1174
1742 1174
1743 1174
1744 1174
1745 1174
1746 1174
1747 1174
1748 1174
1749 1174
1750 1174
1751 1174
1752 1174
1753 1174
1754 1174
1755 1174
1756 1174
1757 1174
1758 1174
1759 1174
1760 1174
1761 1174
1762 1174
1763 1174
1764 1174
1765 1174
1766 1174
1767 1174
1768 1174
1769 1174
1770 1174
1771 1174
1772 1174
1773 1174
1698 1175
1699 1175
1700 1175
1701 1175
1702 1175
1703 1175
1704 1175
1705 1175
1706 1175
1707 1175
1708 1175
1709 1175
1710 1175
1711 1175
1712 1175
1713 1175
1714 1175
1715 1175
1716 1175
1717 1175
1718 1175
1719 1175
1720 1175
1721 1175
1722 1175
1723 1175
1724 1175
1725 1175
1726 1175
1727 1175
1728 1175
1729 1175
1730 1175
1731 1175
1732 1175
1733 1175
1734 1175
1735 1175
1736 1175
1737 1175
1738 1175
1739 1175
1740 1175
1741 1175
1742 1175
1743 1175
1744 1175
1745 1175
1746 1175
1747 1175
1748 1175
1749 1175
1750 1175
1751 1175
1752 1175
1753 1175
1754 1175
1755 1175
1756 1175
1757 1175
1758 1175
1759 1175
1760 1175
1761 1175
1762 1175
1763 1175
1764 1175
1765 1175
1766 1175
1767 1175
1768 1175
1769 1175
1770 1175
1771 1175
1772 1175
1773 1175
1698 1176
1699 1176
1700 1176
1701 1176
1702 1176
1703 1176
1704 1176
1705 1176
1706 1176
1707 1176
1708 1176
1709 1176
1710 1176
1711 1176
1712 1176
1713 1176
1714 1176
1715 1176
1716 1176
1717 1176
1718 1176
1719 1176
1720 1176
1721 1176
1722 1176
1723 1176
1724 1176
1725 1176
1726 1176
1727 1176
1728 1176
1729 1176
1730 1176
1731 1176
1732 1176
1733 1176
1734 1176
1735 1176
1736 1176
1737 1176
1738 1176
1739 1176
1740 1176
1741 1176
1742 1176
1743 1176
1744 1176
1745 1176
1746 1176
1747 1176
1748 1176
1749 1176
1750 1176
1751 1176
1752 1176
1753 1176
1754 1176
1755 1176
1756 1176
1757 1176
1758 1176
1759 1176
1760 1176
1761 1176
1762 1176
1763 1176
1764 1176
1765 1176
1766 1176
1767 1176
1768 1176
1769 1176
1770 1176
1771 1176
1772 1176
1773 1176
1698 1177
1699 1177
1700 1177
1701 1177
1702 1177
1703 1177
1704 1177
1705 1177
1706 1177
1707 1177
1708 1177
1709 1177
1710 1177
1711 1177
1712 1177
1713 1177
1714 1177
1715 1177
1716 1177
1717 1177
1718 1177
1719 1177
1720 1177
1721 1177
1722 1177
1723 1177
1724 1177
1725 1177
1726 1177
1727 1177
1728 1177
1729 1177
1730 1177
1731 1177
1732 1177
1733 1177
1734 1177
1735 1177
1736 1177
1737 1177
1738 1177
1739 1177
1740 1177
1741 1177
1742 1177
1743 1177
1744 1177
1745 1177
1746 1177
1747 1177
1748 1177
1749 1177
1750 1177
1751 1177
1752 1177
1753 1177
1754 1177
1755 1177
1756 1177
1757 1177
1758 1177
1759 1177
1760 1177
1761 1177
1762 1177
1763 1177
1764 1177
1765 1177
1766 1177
1767 1177
1768 1177
1769 1177
1770 1177
1771 1177
1772 1177
1773 1177
1698 1178
1699 1178
1700 1178
1701 1178
1702 1178
1703 1178
1704 1178
1705 1178
1706 1178
1707 1178
1708 1178
1709 1178
1710 1178
1711 1178
1712 1178
1713 1178
1714 1178
1715 1178
1716 1178
1717 1178
1718 1178
1719 1178
1720 1178
1721 1178
1722 1178
1723 1178
1724 1178
1725 1178
1726 1178
1727 1178
1728 1178
1729 1178
1730 1178
1731 1178
1732 1178
1733 1178
1734 1178
1735 1178
1736 1178
1737 1178
1738 1178
1739 1178
1740 1178
1741 1178
1742 1178
1743 1178
1744 1178
1745 1178
1746 1178
1747 1178
1748 1178
1749 1178
1750 1178
1751 1178
1752 1178
1753 1178
1754 1178
1755 1178
1756 1178
1757 1178
1758 1178
1759 1178
1760 1178
1761 1178
1762 1178
1763 1178
1764 1178
1765 1178
1766 1178
1767 1178
1768 1178
1769 1178
1770 1178
1771 1178
1772 1178
1773 1178
1698 1179
1699 1179
1700 1179
1701 1179
1702 1179
1703 1179
1704 1179
1705 1179
1706 1179
1707 1179
1708 1179
1709 1179
1710 1179
1711 1179
1712 1179
1713 1179
1714 1179
1715 1179
1716 1179
1717 1179
1718 1179
1719 1179
1720 1179
1721 1179
1722 1179
1723 1179
1724 1179
1725 1179
1726 1179
1727 1179
1728 1179
1729 1179
1730 1179
1731 1179
1732 1179
1733 1179
1734 1179
1735 1179
1736 1179
1737 1179
1738 1179
1739 1179
1740 1179
1741 1179
1742 1179
1743 1179
1744 1179
1745 1179
1746 1179
1747 1179
1748 1179
1749 1179
1750 1179
1751 1179
1752 1179
1753 1179
1754 1179
1755 1179
1756 1179
1757 1179
1758 1179
1759 1179
1760 1179
1761 1179
1762 1179
1763 1179
1764 1179
1765 1179
1766 1179
1767 1179
1768 1179
1769 1179
1770 1179
1771 1179
1772 1179
1773 1179
1698 1180
1699 1180
1700 1180
1701 1180
1702 1180
1703 1180
1704 1180
1705 1180
1706 1180
1707 1180
1708 1180
1709 1180
1710 1180
1711 1180
1712 1180
1713 1180
1714 1180
1715 1180
1716 1180
1717 1180
1718 1180
1719 1180
1720 1180
1721 1180
1722 1180
1723 1180
1724 1180
1725 1180
1726 1180
1727 1180
1728 1180
1729 1180
1730 1180
1731 1180
1732 1180
1733 1180
1734 1180
1735 1180
1736 1180
1737 1180
1738 1180
1739 1180
1740 1180
1741 1180
1742 1180
1743 1180
1744 1180
1745 1180
1746 1180
1747 1180
1748 1180
1749 1180
1750 1180
1751 1180
1752 1180
1753 1180
1754 1180
1755 1180
1756 1180
1757 1180
1758 1180
1759 1180
1760 1180
1761 1180
1762 1180
1763 1180
1764 1180
1765 1180
1766 1180
1767 1180
1768 1180
1769 1180
1770 1180
1771 1180
1772 1180
1773 1180
1698 1181
1699 1181
1700 1181
1701 1181
1702 1181
1703 1181
1704 1181
1705 1181
1706 1181
1707 1181
1708 1181
1709 1181
1710 1181
1711 1181
1712 1181
1713 1181
1714 1181
1715 1181
1716 1181
1717 1181
1718 1181
1719 1181
1720 1181
1721 1181
1722 1181
1723 1181
1724 1181
1725 1181
1726 1181
1727 1181
1728 1181
1729 1181
1730 1181
1731 1181
1732 1181
1733 1181
1734 1181
1735 1181
1736 1181
1737 1181
1738 1181
1739 1181
1740 1181
1741 1181
1742 1181
1743 1181
1744 1181
1745 1181
1746 1181
1747 1181
1748 1181
1749 1181
1750 1181
1751 1181
1752 1181
1753 1181
1754 1181
1755 1181
1756 1181
1757 1181
1758 1181
1759 1181
1760 1181
1761 1181
1762 1181
1763 1181
1764 1181
1765 1181
1766 1181
1767 1181
1768 1181
1769 1181
1770 1181
1771 1181
1772 1181
1773 1181
1698 1182
1699 1182
1700 1182
1701 1182
1702 1182
1703 1182
1704 1182
1705 1182
1706 1182
1707 1182
1708 1182
1709 1182
1710 1182
1711 1182
1712 1182
1713 1182
1714 1182
1715 1182
1716 1182
1717 1182
1718 1182
1719 1182
1720 1182
1721 1182
1722 1182
1723 1182
1724 1182
1725 1182
1726 1182
1727 1182
1728 1182
1729 1182
1730 1182
1731 1182
1732 1182
1733 1182
1734 1182
1735 1182
1736 1182
1737 1182
1738 1182
1739 1182
1740 1182
1741 1182
1742 1182
1743 1182
1744 1182
1745 1182
1746 1182
1747 1182
1748 1182
1749 1182
1750 1182
1751 1182
1752 1182
1753 1182
1754 1182
1755 1182
1756 1182
1757 1182
1758 1182
1759 1182
1760 1182
1761 1182
1762 1182
1763 1182
1764 1182
1765 1182
1766 1182
1767 1182
1768 1182
1769 1182
1770 1182
1771 1182
1772 1182
1773 1182
