%%MatrixMarket matrix coordinate pattern general
1773 1226 24904
45 45
46 45
47 45
48 45
49 45
50 45
51 45
52 45
53 45
54 45
55 45
56 45
57 45
58 45
59 45
60 45
61 45
62 45
63 45
64 45
65 45
66 45
67 45
68 45
69 45
70 45
71 45
72 45
73 45
74 45
75 45
76 45
77 45
78 45
79 45
80 45
81 45
82 45
83 45
84 45
85 45
86 45
87 45
88 45
45 46
46 46
47 46
48 46
49 46
50 46
51 46
52 46
53 46
54 46
55 46
56 46
57 46
58 46
59 46
60 46
61 46
62 46
63 46
64 46
65 46
66 46
67 46
68 46
69 46
70 46
71 46
72 46
73 46
74 46
75 46
76 46
77 46
78 46
79 46
80 46
81 46
82 46
83 46
84 46
85 46
86 46
87 46
88 46
45 47
46 47
47 47
48 47
49 47
50 47
51 47
52 47
53 47
54 47
55 47
56 47
57 47
58 47
59 47
60 47
61 47
62 47
63 47
64 47
65 47
66 47
67 47
68 47
69 47
70 47
71 47
72 47
73 47
74 47
75 47
76 47
77 47
78 47
79 47
80 47
81 47
82 47
83 47
84 47
85 47
86 47
87 47
88 47
45 48
46 48
47 48
48 48
49 48
50 48
51 48
52 48
53 48
54 48
55 48
56 48
57 48
58 48
59 48
60 48
61 48
62 48
63 48
64 48
65 48
66 48
67 48
68 48
69 48
70 48
71 48
72 48
73 48
74 48
75 48
76 48
77 48
78 48
79 48
80 48
81 48
82 48
83 48
84 48
85 48
86 48
87 48
88 48
45 49
46 49
47 49
48 49
49 49
50 49
51 49
52 49
53 49
54 49
55 49
56 49
57 49
58 49
59 49
60 49
61 49
62 49
63 49
64 49
65 49
66 49
67 49
68 49
69 49
70 49
71 49
72 49
73 49
74 49
75 49
76 49
77 49
78 49
79 49
80 49
81 49
82 49
83 49
84 49
85 49
86 49
87 49
88 49
45 50
46 50
47 50
48 50
49 50
50 50
51 50
52 50
53 50
54 50
55 50
56 50
57 50
58 50
59 50
60 50
61 50
62 50
63 50
64 50
65 50
66 50
67 50
68 50
69 50
70 50
71 50
72 50
73 50
74 50
75 50
76 50
77 50
78 50
79 50
80 50
81 50
82 50
83 50
84 50
85 50
86 50
87 50
88 50
45 51
46 51
47 51
48 51
49 51
50 51
51 51
52 51
53 51
54 51
55 51
56 51
57 51
58 51
59 51
60 51
61 51
62 51
63 51
64 51
65 51
66 51
67 51
68 51
69 51
70 51
71 51
72 51
73 51
74 51
75 51
76 51
77 51
78 51
79 51
80 51
81 51
82 51
83 51
84 51
85 51
86 51
87 51
88 51
45 52
46 52
47 52
48 52
49 52
50 52
51 52
52 52
53 52
54 52
55 52
56 52
57 52
58 52
59 52
60 52
61 52
62 52
63 52
64 52
65 52
66 52
67 52
68 52
69 52
70 52
71 52
72 52
73 52
74 52
75 52
76 52
77 52
78 52
79 52
80 52
81 52
82 52
83 52
84 52
85 52
86 52
87 52
88 52
45 53
46 53
47 53
48 53
49 53
50 53
51 53
52 53
53 53
54 53
55 53
56 53
57 53
58 53
59 53
60 53
61 53
62 53
63 53
64 53
65 53
66 53
67 53
68 53
69 53
70 53
71 53
72 53
73 53
74 53
75 53
76 53
77 53
78 53
79 53
80 53
81 53
82 53
83 53
84 53
85 53
86 53
87 53
88 53
45 54
46 54
47 54
48 54
49 54
50 54
51 54
52 54
53 54
54 54
55 54
56 54
57 54
58 54
59 54
60 54
61 54
62 54
63 54
64 54
65 54
66 54
67 54
68 54
69 54
70 54
71 54
72 54
73 54
74 54
75 54
76 54
77 54
78 54
79 54
80 54
81 54
82 54
83 54
84 54
85 54
86 54
87 54
88 54
45 55
46 55
47 55
48 55
49 55
50 55
51 55
52 55
53 55
54 55
55 55
56 55
57 55
58 55
59 55
60 55
61 55
62 55
63 55
64 55
65 55
66 55
67 55
68 55
69 55
70 55
71 55
72 55
73 55
74 55
75 55
76 55
77 55
78 55
79 55
80 55
81 55
82 55
83 55
84 55
85 55
86 55
87 55
88 55
45 56
46 56
47 56
48 56
49 56
50 56
51 56
52 56
53 56
54 56
55 56
56 56
57 56
58 56
59 56
60 56
61 56
62 56
63 56
64 56
65 56
66 56
67 56
68 56
69 56
70 56
71 56
72 56
73 56
74 56
75 56
76 56
77 56
78 56
79 56
80 56
81 56
82 56
83 56
84 56
85 56
86 56
87 56
88 56
45 57
46 57
47 57
48 57
49 57
50 57
51 57
52 57
53 57
54 57
55 57
56 57
57 57
58 57
59 57
60 57
61 57
62 57
63 57
64 57
65 57
66 57
67 57
68 57
69 57
70 57
71 57
72 57
73 57
74 57
75 57
76 57
77 57
78 57
79 57
80 57
81 57
82 57
83 57
84 57
85 57
86 57
87 57
88 57
45 58
46 58
47 58
48 58
49 58
50 58
51 58
52 58
53 58
54 58
55 58
56 58
57 58
58 58
59 58
60 58
61 58
62 58
63 58
64 58
65 58
66 58
67 58
68 58
69 58
70 58
71 58
72 58
73 58
74 58
75 58
76 58
77 58
78 58
79 58
80 58
81 58
82 58
83 58
84 58
85 58
86 58
87 58
88 58
45 59
46 59
47 59
48 59
49 59
50 59
51 59
52 59
53 59
54 59
55 59
56 59
57 59
58 59
59 59
60 59
61 59
62 59
63 59
64 59
65 59
66 59
67 59
68 59
69 59
70 59
71 59
72 59
73 59
74 59
75 59
76 59
77 59
78 59
79 59
80 59
81 59
82 59
83 59
84 59
85 59
86 59
87 59
88 59
45 60
46 60
47 60
48 60
49 60
50 60
51 60
52 60
53 60
54 60
55 60
56 60
57 60
58 60
59 60
60 60
61 60
62 60
63 60
64 60
65 60
66 60
67 60
68 60
69 60
70 60
71 60
72 60
73 60
74 60
75 60
76 60
77 60
78 60
79 60
80 60
81 60
82 60
83 60
84 60
85 60
86 60
87 60
88 60
45 61
46 61
47 61
48 61
49 61
50 61
51 61
52 61
53 61
54 61
55 61
56 61
57 61
58 61
59 61
60 61
61 61
62 61
63 61
64 61
65 61
66 61
67 61
68 61
69 61
70 61
71 61
72 61
73 61
74 61
75 61
76 61
77 61
78 61
79 61
80 61
81 61
82 61
83 61
84 61
85 61
86 61
87 61
88 61
45 62
46 62
47 62
48 62
49 62
50 62
51 62
52 62
53 62
54 62
55 62
56 62
57 62
58 62
59 62
60 62
61 62
62 62
63 62
64 62
65 62
66 62
67 62
68 62
69 62
70 62
71 62
72 62
73 62
74 62
75 62
76 62
77 62
78 62
79 62
80 62
81 62
82 62
83 62
84 62
85 62
86 62
87 62
88 62
45 63
46 63
47 63
48 63
49 63
50 63
51 63
52 63
53 63
54 63
55 63
56 63
57 63
58 63
59 63
60 63
61 63
62 63
63 63
64 63
65 63
66 63
67 63
68 63
69 63
70 63
71 63
72 63
73 63
74 63
75 63
76 63
77 63
78 63
79 63
80 63
81 63
82 63
83 63
84 63
85 63
86 63
87 63
88 63
45 64
46 64
47 64
48 64
49 64
50 64
51 64
52 64
53 64
54 64
55 64
56 64
57 64
58 64
59 64
60 64
61 64
62 64
63 64
64 64
65 64
66 64
67 64
68 64
69 64
70 64
71 64
72 64
73 64
74 64
75 64
76 64
77 64
78 64
79 64
80 64
81 64
82 64
83 64
84 64
85 64
86 64
87 64
88 64
45 65
46 65
47 65
48 65
49 65
50 65
51 65
52 65
53 65
54 65
55 65
56 65
57 65
58 65
59 65
60 65
61 65
62 65
63 65
64 65
65 65
66 65
67 65
68 65
69 65
70 65
71 65
72 65
73 65
74 65
75 65
76 65
77 65
78 65
79 65
80 65
81 65
82 65
83 65
84 65
85 65
86 65
87 65
88 65
45 66
46 66
47 66
48 66
49 66
50 66
51 66
52 66
53 66
54 66
55 66
56 66
57 66
58 66
59 66
60 66
61 66
62 66
63 66
64 66
65 66
66 66
67 66
68 66
69 66
70 66
71 66
72 66
73 66
74 66
75 66
76 66
77 66
78 66
79 66
80 66
81 66
82 66
83 66
84 66
85 66
86 66
87 66
88 66
45 67
46 67
47 67
48 67
49 67
50 67
51 67
52 67
53 67
54 67
55 67
56 67
57 67
58 67
59 67
60 67
61 67
62 67
63 67
64 67
65 67
66 67
67 67
68 67
69 67
70 67
71 67
72 67
73 67
74 67
75 67
76 67
77 67
78 67
79 67
80 67
81 67
82 67
83 67
84 67
85 67
86 67
87 67
88 67
45 68
46 68
47 68
48 68
49 68
50 68
51 68
52 68
53 68
54 68
55 68
56 68
57 68
58 68
59 68
60 68
61 68
62 68
63 68
64 68
65 68
66 68
67 68
68 68
69 68
70 68
71 68
72 68
73 68
74 68
75 68
76 68
77 68
78 68
79 68
80 68
81 68
82 68
83 68
84 68
85 68
86 68
87 68
88 68
45 69
46 69
47 69
48 69
49 69
50 69
51 69
52 69
53 69
54 69
55 69
56 69
57 69
58 69
59 69
60 69
61 69
62 69
63 69
64 69
65 69
66 69
67 69
68 69
69 69
70 69
71 69
72 69
73 69
74 69
75 69
76 69
77 69
78 69
79 69
80 69
81 69
82 69
83 69
84 69
85 69
86 69
87 69
88 69
45 70
46 70
47 70
48 70
49 70
50 70
51 70
52 70
53 70
54 70
55 70
56 70
57 70
58 70
59 70
60 70
61 70
62 70
63 70
64 70
65 70
66 70
67 70
68 70
69 70
70 70
71 70
72 70
73 70
74 70
75 70
76 70
77 70
78 70
79 70
80 70
81 70
82 70
83 70
84 70
85 70
86 70
87 70
88 70
45 71
46 71
47 71
48 71
49 71
50 71
51 71
52 71
53 71
54 71
55 71
56 71
57 71
58 71
59 71
60 71
61 71
62 71
63 71
64 71
65 71
66 71
67 71
68 71
69 71
70 71
71 71
72 71
73 71
74 71
75 71
76 71
77 71
78 71
79 71
80 71
81 71
82 71
83 71
84 71
85 71
86 71
87 71
88 71
45 72
46 72
47 72
48 72
49 72
50 72
51 72
52 72
53 72
54 72
55 72
56 72
57 72
58 72
59 72
60 72
61 72
62 72
63 72
64 72
65 72
66 72
67 72
68 72
69 72
70 72
71 72
72 72
73 72
74 72
75 72
76 72
77 72
78 72
79 72
80 72
81 72
82 72
83 72
84 72
85 72
86 72
87 72
88 72
45 73
46 73
47 73
48 73
49 73
50 73
51 73
52 73
53 73
54 73
55 73
56 73
57 73
58 73
59 73
60 73
61 73
62 73
63 73
64 73
65 73
66 73
67 73
68 73
69 73
70 73
71 73
72 73
73 73
74 73
75 73
76 73
77 73
78 73
79 73
80 73
81 73
82 73
83 73
84 73
85 73
86 73
87 73
88 73
45 74
46 74
47 74
48 74
49 74
50 74
51 74
52 74
53 74
54 74
55 74
56 74
57 74
58 74
59 74
60 74
61 74
62 74
63 74
64 74
65 74
66 74
67 74
68 74
69 74
70 74
71 74
72 74
73 74
74 74
75 74
76 74
77 74
78 74
79 74
80 74
81 74
82 74
83 74
84 74
85 74
86 74
87 74
88 74
45 75
46 75
47 75
48 75
49 75
50 75
51 75
52 75
53 75
54 75
55 75
56 75
57 75
58 75
59 75
60 75
61 75
62 75
63 75
64 75
65 75
66 75
67 75
68 75
69 75
70 75
71 75
72 75
73 75
74 75
75 75
76 75
77 75
78 75
79 75
80 75
81 75
82 75
83 75
84 75
85 75
86 75
87 75
88 75
45 76
46 76
47 76
48 76
49 76
50 76
51 76
52 76
53 76
54 76
55 76
56 76
57 76
58 76
59 76
60 76
61 76
62 76
63 76
64 76
65 76
66 76
67 76
68 76
69 76
70 76
71 76
72 76
73 76
74 76
75 76
76 76
77 76
78 76
79 76
80 76
81 76
82 76
83 76
84 76
85 76
86 76
87 76
88 76
45 77
46 77
47 77
48 77
49 77
50 77
51 77
52 77
53 77
54 77
55 77
56 77
57 77
58 77
59 77
60 77
61 77
62 77
63 77
64 77
65 77
66 77
67 77
68 77
69 77
70 77
71 77
72 77
73 77
74 77
75 77
76 77
77 77
78 77
79 77
80 77
81 77
82 77
83 77
84 77
85 77
86 77
87 77
88 77
45 78
46 78
47 78
48 78
49 78
50 78
51 78
52 78
53 78
54 78
55 78
56 78
57 78
58 78
59 78
60 78
61 78
62 78
63 78
64 78
65 78
66 78
67 78
68 78
69 78
70 78
71 78
72 78
73 78
74 78
75 78
76 78
77 78
78 78
79 78
80 78
81 78
82 78
83 78
84 78
85 78
86 78
87 78
88 78
45 79
46 79
47 79
48 79
49 79
50 79
51 79
52 79
53 79
54 79
55 79
56 79
57 79
58 79
59 79
60 79
61 79
62 79
63 79
64 79
65 79
66 79
67 79
68 79
69 79
70 79
71 79
72 79
73 79
74 79
75 79
76 79
77 79
78 79
79 79
80 79
81 79
82 79
83 79
84 79
85 79
86 79
87 79
88 79
45 80
46 80
47 80
48 80
49 80
50 80
51 80
52 80
53 80
54 80
55 80
56 80
57 80
58 80
59 80
60 80
61 80
62 80
63 80
64 80
65 80
66 80
67 80
68 80
69 80
70 80
71 80
72 80
73 80
74 80
75 80
76 80
77 80
78 80
79 80
80 80
81 80
82 80
83 80
84 80
85 80
86 80
87 80
88 80
45 81
46 81
47 81
48 81
49 81
50 81
51 81
52 81
53 81
54 81
55 81
56 81
57 81
58 81
59 81
60 81
61 81
62 81
63 81
64 81
65 81
66 81
67 81
68 81
69 81
70 81
71 81
72 81
73 81
74 81
75 81
76 81
77 81
78 81
79 81
80 81
81 81
82 81
83 81
84 81
85 81
86 81
87 81
88 81
45 82
46 82
47 82
48 82
49 82
50 82
51 82
52 82
53 82
54 82
55 82
56 82
57 82
58 82
59 82
60 82
61 82
62 82
63 82
64 82
65 82
66 82
67 82
68 82
69 82
70 82
71 82
72 82
73 82
74 82
75 82
76 82
77 82
78 82
79 82
80 82
81 82
82 82
83 82
84 82
85 82
86 82
87 82
88 82
45 83
46 83
47 83
48 83
49 83
50 83
51 83
52 83
53 83
54 83
55 83
56 83
57 83
58 83
59 83
60 83
61 83
62 83
63 83
64 83
65 83
66 83
67 83
68 83
69 83
70 83
71 83
72 83
73 83
74 83
75 83
76 83
77 83
78 83
79 83
80 83
81 83
82 83
83 83
84 83
85 83
86 83
87 83
88 83
45 84
46 84
47 84
48 84
49 84
50 84
51 84
52 84
53 84
54 84
55 84
56 84
57 84
58 84
59 84
60 84
61 84
62 84
63 84
64 84
65 84
66 84
67 84
68 84
69 84
70 84
71 84
72 84
73 84
74 84
75 84
76 84
77 84
78 84
79 84
80 84
81 84
82 84
83 84
84 84
85 84
86 84
87 84
88 84
45 85
46 85
47 85
48 85
49 85
50 85
51 85
52 85
53 85
54 85
55 85
56 85
57 85
58 85
59 85
60 85
61 85
62 85
63 85
64 85
65 85
66 85
67 85
68 85
69 85
70 85
71 85
72 85
73 85
74 85
75 85
76 85
77 85
78 85
79 85
80 85
81 85
82 85
83 85
84 85
85 85
86 85
87 85
88 85
45 86
46 86
47 86
48 86
49 86
50 86
51 86
52 86
53 86
54 86
55 86
56 86
57 86
58 86
59 86
60 86
61 86
62 86
63 86
64 86
65 86
66 86
67 86
68 86
69 86
70 86
71 86
72 86
73 86
74 86
75 86
76 86
77 86
78 86
79 86
80 86
81 86
82 86
83 86
84 86
85 86
86 86
87 86
88 86
45 87
46 87
47 87
48 87
49 87
50 87
51 87
52 87
53 87
54 87
55 87
56 87
57 87
58 87
59 87
60 87
61 87
62 87
63 87
64 87
65 87
66 87
67 87
68 87
69 87
70 87
71 87
72 87
73 87
74 87
75 87
76 87
77 87
78 87
79 87
80 87
81 87
82 87
83 87
84 87
85 87
86 87
87 87
88 87
45 88
46 88
47 88
48 88
49 88
50 88
51 88
52 88
53 88
54 88
55 88
56 88
57 88
58 88
59 88
60 88
61 88
62 88
63 88
64 88
65 88
66 88
67 88
68 88
69 88
70 88
71 88
72 88
73 88
74 88
75 88
76 88
77 88
78 88
79 88
80 88
81 88
82 88
83 88
84 88
85 88
86 88
87 88
88 88
45 89
46 89
47 89
48 89
49 89
50 89
51 89
52 89
53 89
54 89
55 89
56 89
57 89
58 89
59 89
60 89
61 89
62 89
63 89
64 89
65 89
66 89
67 89
68 89
69 89
70 89
71 89
72 89
73 89
74 89
75 89
76 89
77 89
78 89
79 89
80 89
81 89
82 89
83 89
84 89
85 89
86 89
87 89
88 89
45 90
46 90
47 90
48 90
49 90
50 90
51 90
52 90
53 90
54 90
55 90
56 90
57 90
58 90
59 90
60 90
61 90
62 90
63 90
64 90
65 90
66 90
67 90
68 90
69 90
70 90
71 90
72 90
73 90
74 90
75 90
76 90
77 90
78 90
79 90
80 90
81 90
82 90
83 90
84 90
85 90
86 90
87 90
88 90
45 91
46 91
47 91
48 91
49 91
50 91
51 91
52 91
53 91
54 91
55 91
56 91
57 91
58 91
59 91
60 91
61 91
62 91
63 91
64 91
65 91
66 91
67 91
68 91
69 91
70 91
71 91
72 91
73 91
74 91
75 91
76 91
77 91
78 91
79 91
80 91
81 91
82 91
83 91
84 91
85 91
86 91
87 91
88 91
45 92
46 92
47 92
48 92
49 92
50 92
51 92
52 92
53 92
54 92
55 92
56 92
57 92
58 92
59 92
60 92
61 92
62 92
63 92
64 92
65 92
66 92
67 92
68 92
69 92
70 92
71 92
72 92
73 92
74 92
75 92
76 92
77 92
78 92
79 92
80 92
81 92
82 92
83 92
84 92
85 92
86 92
87 92
88 92
45 93
46 93
47 93
48 93
49 93
50 93
51 93
52 93
53 93
54 93
55 93
56 93
57 93
58 93
59 93
60 93
61 93
62 93
63 93
64 93
65 93
66 93
67 93
68 93
69 93
70 93
71 93
72 93
73 93
74 93
75 93
76 93
77 93
78 93
79 93
80 93
81 93
82 93
83 93
84 93
85 93
86 93
87 93
88 93
45 94
46 94
47 94
48 94
49 94
50 94
51 94
52 94
53 94
54 94
55 94
56 94
57 94
58 94
59 94
60 94
61 94
62 94
63 94
64 94
65 94
66 94
67 94
68 94
69 94
70 94
71 94
72 94
73 94
74 94
75 94
76 94
77 94
78 94
79 94
80 94
81 94
82 94
83 94
84 94
85 94
86 94
87 94
88 94
45 95
46 95
47 95
48 95
49 95
50 95
51 95
52 95
53 95
54 95
55 95
56 95
57 95
58 95
59 95
60 95
61 95
62 95
63 95
64 95
65 95
66 95
67 95
68 95
69 95
70 95
71 95
72 95
73 95
74 95
75 95
76 95
77 95
78 95
79 95
80 95
81 95
82 95
83 95
84 95
85 95
86 95
87 95
88 95
45 96
46 96
47 96
48 96
49 96
50 96
51 96
52 96
53 96
54 96
55 96
56 96
57 96
58 96
59 96
60 96
61 96
62 96
63 96
64 96
65 96
66 96
67 96
68 96
69 96
70 96
71 96
72 96
73 96
74 96
75 96
76 96
77 96
78 96
79 96
80 96
81 96
82 96
83 96
84 96
85 96
86 96
87 96
88 96
45 97
46 97
47 97
48 97
49 97
50 97
51 97
52 97
53 97
54 97
55 97
56 97
57 97
58 97
59 97
60 97
61 97
62 97
63 97
64 97
65 97
66 97
67 97
68 97
69 97
70 97
71 97
72 97
73 97
74 97
75 97
76 97
77 97
78 97
79 97
80 97
81 97
82 97
83 97
84 97
85 97
86 97
87 97
88 97
150 142
151 142
152 142
153 142
154 142
155 142
156 142
157 142
158 142
159 142
160 142
161 142
162 142
163 142
164 142
165 142
166 142
167 142
168 142
169 142
170 142
171 142
172 142
173 142
174 142
175 142
176 142
177 142
178 142
179 142
180 142
181 142
182 142
183 142
184 142
185 142
186 142
187 142
188 142
189 142
190 142
191 142
192 142
193 142
150 143
151 143
152 143
153 143
154 143
155 143
156 143
157 143
158 143
159 143
160 143
161 143
162 143
163 143
164 143
165 143
166 143
167 143
168 143
169 143
170 143
171 143
172 143
173 143
174 143
175 143
176 143
177 143
178 143
179 143
180 143
181 143
182 143
183 143
184 143
185 143
186 143
187 143
188 143
189 143
190 143
191 143
192 143
193 143
150 144
151 144
152 144
153 144
154 144
155 144
156 144
157 144
158 144
159 144
160 144
161 144
162 144
163 144
164 144
165 144
166 144
167 144
168 144
169 144
170 144
171 144
172 144
173 144
174 144
175 144
176 144
177 144
178 144
179 144
180 144
181 144
182 144
183 144
184 144
185 144
186 144
187 144
188 144
189 144
190 144
191 144
192 144
193 144
150 145
151 145
152 145
153 145
154 145
155 145
156 145
157 145
158 145
159 145
160 145
161 145
162 145
163 145
164 145
165 145
166 145
167 145
168 145
169 145
170 145
171 145
172 145
173 145
174 145
175 145
176 145
177 145
178 145
179 145
180 145
181 145
182 145
183 145
184 145
185 145
186 145
187 145
188 145
189 145
190 145
191 145
192 145
193 145
150 146
151 146
152 146
153 146
154 146
155 146
156 146
157 146
158 146
159 146
160 146
161 146
162 146
163 146
164 146
165 146
166 146
167 146
168 146
169 146
170 146
171 146
172 146
173 146
174 146
175 146
176 146
177 146
178 146
179 146
180 146
181 146
182 146
183 146
184 146
185 146
186 146
187 146
188 146
189 146
190 146
191 146
192 146
193 146
150 147
151 147
152 147
153 147
154 147
155 147
156 147
157 147
158 147
159 147
160 147
161 147
162 147
163 147
164 147
165 147
166 147
167 147
168 147
169 147
170 147
171 147
172 147
173 147
174 147
175 147
176 147
177 147
178 147
179 147
180 147
181 147
182 147
183 147
184 147
185 147
186 147
187 147
188 147
189 147
190 147
191 147
192 147
193 147
150 148
151 148
152 148
153 148
154 148
155 148
156 148
157 148
158 148
159 148
160 148
161 148
162 148
163 148
164 148
165 148
166 148
167 148
168 148
169 148
170 148
171 148
172 148
173 148
174 148
175 148
176 148
177 148
178 148
179 148
180 148
181 148
182 148
183 148
184 148
185 148
186 148
187 148
188 148
189 148
190 148
191 148
192 148
193 148
150 149
151 149
152 149
153 149
154 149
155 149
156 149
157 149
158 149
159 149
160 149
161 149
162 149
163 149
164 149
165 149
166 149
167 149
168 149
169 149
170 149
171 149
172 149
173 149
174 149
175 149
176 149
177 149
178 149
179 149
180 149
181 149
182 149
183 149
184 149
185 149
186 149
187 149
188 149
189 149
190 149
191 149
192 149
193 149
150 150
151 150
152 150
153 150
154 150
155 150
156 150
157 150
158 150
159 150
160 150
161 150
162 150
163 150
164 150
165 150
166 150
167 150
168 150
169 150
170 150
171 150
172 150
173 150
174 150
175 150
176 150
177 150
178 150
179 150
180 150
181 150
182 150
183 150
184 150
185 150
186 150
187 150
188 150
189 150
190 150
191 150
192 150
193 150
150 151
151 151
152 151
153 151
154 151
155 151
156 151
157 151
158 151
159 151
160 151
161 151
162 151
163 151
164 151
165 151
166 151
167 151
168 151
169 151
170 151
171 151
172 151
173 151
174 151
175 151
176 151
177 151
178 151
179 151
180 151
181 151
182 151
183 151
184 151
185 151
186 151
187 151
188 151
189 151
190 151
191 151
192 151
193 151
150 152
151 152
152 152
153 152
154 152
155 152
156 152
157 152
158 152
159 152
160 152
161 152
162 152
163 152
164 152
165 152
166 152
167 152
168 152
169 152
170 152
171 152
172 152
173 152
174 152
175 152
176 152
177 152
178 152
179 152
180 152
181 152
182 152
183 152
184 152
185 152
186 152
187 152
188 152
189 152
190 152
191 152
192 152
193 152
150 153
151 153
152 153
153 153
154 153
155 153
156 153
157 153
158 153
159 153
160 153
161 153
162 153
163 153
164 153
165 153
166 153
167 153
168 153
169 153
170 153
171 153
172 153
173 153
174 153
175 153
176 153
177 153
178 153
179 153
180 153
181 153
182 153
183 153
184 153
185 153
186 153
187 153
188 153
189 153
190 153
191 153
192 153
193 153
150 154
151 154
152 154
153 154
154 154
155 154
156 154
157 154
158 154
159 154
160 154
161 154
162 154
163 154
164 154
165 154
166 154
167 154
168 154
169 154
170 154
171 154
172 154
173 154
174 154
175 154
176 154
177 154
178 154
179 154
180 154
181 154
182 154
183 154
184 154
185 154
186 154
187 154
188 154
189 154
190 154
191 154
192 154
193 154
150 155
151 155
152 155
153 155
154 155
155 155
156 155
157 155
158 155
159 155
160 155
161 155
162 155
163 155
164 155
165 155
166 155
167 155
168 155
169 155
170 155
171 155
172 155
173 155
174 155
175 155
176 155
177 155
178 155
179 155
180 155
181 155
182 155
183 155
184 155
185 155
186 155
187 155
188 155
189 155
190 155
191 155
192 155
193 155
150 156
151 156
152 156
153 156
154 156
155 156
156 156
157 156
158 156
159 156
160 156
161 156
162 156
163 156
164 156
165 156
166 156
167 156
168 156
169 156
170 156
171 156
172 156
173 156
174 156
175 156
176 156
177 156
178 156
179 156
180 156
181 156
182 156
183 156
184 156
185 156
186 156
187 156
188 156
189 156
190 156
191 156
192 156
193 156
150 157
151 157
152 157
153 157
154 157
155 157
156 157
157 157
158 157
159 157
160 157
161 157
162 157
163 157
164 157
165 157
166 157
167 157
168 157
169 157
170 157
171 157
172 157
173 157
174 157
175 157
176 157
177 157
178 157
179 157
180 157
181 157
182 157
183 157
184 157
185 157
186 157
187 157
188 157
189 157
190 157
191 157
192 157
193 157
150 158
151 158
152 158
153 158
154 158
155 158
156 158
157 158
158 158
159 158
160 158
161 158
162 158
163 158
164 158
165 158
166 158
167 158
168 158
169 158
170 158
171 158
172 158
173 158
174 158
175 158
176 158
177 158
178 158
179 158
180 158
181 158
182 158
183 158
184 158
185 158
186 158
187 158
188 158
189 158
190 158
191 158
192 158
193 158
150 159
151 159
152 159
153 159
154 159
155 159
156 159
157 159
158 159
159 159
160 159
161 159
162 159
163 159
164 159
165 159
166 159
167 159
168 159
169 159
170 159
171 159
172 159
173 159
174 159
175 159
176 159
177 159
178 159
179 159
180 159
181 159
182 159
183 159
184 159
185 159
186 159
187 159
188 159
189 159
190 159
191 159
192 159
193 159
150 160
151 160
152 160
153 160
154 160
155 160
156 160
157 160
158 160
159 160
160 160
161 160
162 160
163 160
164 160
165 160
166 160
167 160
168 160
169 160
170 160
171 160
172 160
173 160
174 160
175 160
176 160
177 160
178 160
179 160
180 160
181 160
182 160
183 160
184 160
185 160
186 160
187 160
188 160
189 160
190 160
191 160
192 160
193 160
150 161
151 161
152 161
153 161
154 161
155 161
156 161
157 161
158 161
159 161
160 161
161 161
162 161
163 161
164 161
165 161
166 161
167 161
168 161
169 161
170 161
171 161
172 161
173 161
174 161
175 161
176 161
177 161
178 161
179 161
180 161
181 161
182 161
183 161
184 161
185 161
186 161
187 161
188 161
189 161
190 161
191 161
192 161
193 161
150 162
151 162
152 162
153 162
154 162
155 162
156 162
157 162
158 162
159 162
160 162
161 162
162 162
163 162
164 162
165 162
166 162
167 162
168 162
169 162
170 162
171 162
172 162
173 162
174 162
175 162
176 162
177 162
178 162
179 162
180 162
181 162
182 162
183 162
184 162
185 162
186 162
187 162
188 162
189 162
190 162
191 162
192 162
193 162
150 163
151 163
152 163
153 163
154 163
155 163
156 163
157 163
158 163
159 163
160 163
161 163
162 163
163 163
164 163
165 163
166 163
167 163
168 163
169 163
170 163
171 163
172 163
173 163
174 163
175 163
176 163
177 163
178 163
179 163
180 163
181 163
182 163
183 163
184 163
185 163
186 163
187 163
188 163
189 163
190 163
191 163
192 163
193 163
150 164
151 164
152 164
153 164
154 164
155 164
156 164
157 164
158 164
159 164
160 164
161 164
162 164
163 164
164 164
165 164
166 164
167 164
168 164
169 164
170 164
171 164
172 164
173 164
174 164
175 164
176 164
177 164
178 164
179 164
180 164
181 164
182 164
183 164
184 164
185 164
186 164
187 164
188 164
189 164
190 164
191 164
192 164
193 164
150 165
151 165
152 165
153 165
154 165
155 165
156 165
157 165
158 165
159 165
160 165
161 165
162 165
163 165
164 165
165 165
166 165
167 165
168 165
169 165
170 165
171 165
172 165
173 165
174 165
175 165
176 165
177 165
178 165
179 165
180 165
181 165
182 165
183 165
184 165
185 165
186 165
187 165
188 165
189 165
190 165
191 165
192 165
193 165
150 166
151 166
152 166
153 166
154 166
155 166
156 166
157 166
158 166
159 166
160 166
161 166
162 166
163 166
164 166
165 166
166 166
167 166
168 166
169 166
170 166
171 166
172 166
173 166
174 166
175 166
176 166
177 166
178 166
179 166
180 166
181 166
182 166
183 166
184 166
185 166
186 166
187 166
188 166
189 166
190 166
191 166
192 166
193 166
150 167
151 167
152 167
153 167
154 167
155 167
156 167
157 167
158 167
159 167
160 167
161 167
162 167
163 167
164 167
165 167
166 167
167 167
168 167
169 167
170 167
171 167
172 167
173 167
174 167
175 167
176 167
177 167
178 167
179 167
180 167
181 167
182 167
183 167
184 167
185 167
186 167
187 167
188 167
189 167
190 167
191 167
192 167
193 167
150 168
151 168
152 168
153 168
154 168
155 168
156 168
157 168
158 168
159 168
160 168
161 168
162 168
163 168
164 168
165 168
166 168
167 168
168 168
169 168
170 168
171 168
172 168
173 168
174 168
175 168
176 168
177 168
178 168
179 168
180 168
181 168
182 168
183 168
184 168
185 168
186 168
187 168
188 168
189 168
190 168
191 168
192 168
193 168
150 169
151 169
152 169
153 169
154 169
155 169
156 169
157 169
158 169
159 169
160 169
161 169
162 169
163 169
164 169
165 169
166 169
167 169
168 169
169 169
170 169
171 169
172 169
173 169
174 169
175 169
176 169
177 169
178 169
179 169
180 169
181 169
182 169
183 169
184 169
185 169
186 169
187 169
188 169
189 169
190 169
191 169
192 169
193 169
150 170
151 170
152 170
153 170
154 170
155 170
156 170
157 170
158 170
159 170
160 170
161 170
162 170
163 170
164 170
165 170
166 170
167 170
168 170
169 170
170 170
171 170
172 170
173 170
174 170
175 170
176 170
177 170
178 170
179 170
180 170
181 170
182 170
183 170
184 170
185 170
186 170
187 170
188 170
189 170
190 170
191 170
192 170
193 170
150 171
151 171
152 171
153 171
154 171
155 171
156 171
157 171
158 171
159 171
160 171
161 171
162 171
163 171
164 171
165 171
166 171
167 171
168 171
169 171
170 171
171 171
172 171
173 171
174 171
175 171
176 171
177 171
178 171
179 171
180 171
181 171
182 171
183 171
184 171
185 171
186 171
187 171
188 171
189 171
190 171
191 171
192 171
193 171
150 172
151 172
152 172
153 172
154 172
155 172
156 172
157 172
158 172
159 172
160 172
161 172
162 172
163 172
164 172
165 172
166 172
167 172
168 172
169 172
170 172
171 172
172 172
173 172
174 172
175 172
176 172
177 172
178 172
179 172
180 172
181 172
182 172
183 172
184 172
185 172
186 172
187 172
188 172
189 172
190 172
191 172
192 172
193 172
150 173
151 173
152 173
153 173
154 173
155 173
156 173
157 173
158 173
159 173
160 173
161 173
162 173
163 173
164 173
165 173
166 173
167 173
168 173
169 173
170 173
171 173
172 173
173 173
174 173
175 173
176 173
177 173
178 173
179 173
180 173
181 173
182 173
183 173
184 173
185 173
186 173
187 173
188 173
189 173
190 173
191 173
192 173
193 173
150 174
151 174
152 174
153 174
154 174
155 174
156 174
157 174
158 174
159 174
160 174
161 174
162 174
163 174
164 174
165 174
166 174
167 174
168 174
169 174
170 174
171 174
172 174
173 174
174 174
175 174
176 174
177 174
178 174
179 174
180 174
181 174
182 174
183 174
184 174
185 174
186 174
187 174
188 174
189 174
190 174
191 174
192 174
193 174
150 175
151 175
152 175
153 175
154 175
155 175
156 175
157 175
158 175
159 175
160 175
161 175
162 175
163 175
164 175
165 175
166 175
167 175
168 175
169 175
170 175
171 175
172 175
173 175
174 175
175 175
176 175
177 175
178 175
179 175
180 175
181 175
182 175
183 175
184 175
185 175
186 175
187 175
188 175
189 175
190 175
191 175
192 175
193 175
150 176
151 176
152 176
153 176
154 176
155 176
156 176
157 176
158 176
159 176
160 176
161 176
162 176
163 176
164 176
165 176
166 176
167 176
168 176
169 176
170 176
171 176
172 176
173 176
174 176
175 176
176 176
177 176
178 176
179 176
180 176
181 176
182 176
183 176
184 176
185 176
186 176
187 176
188 176
189 176
190 176
191 176
192 176
193 176
150 177
151 177
152 177
153 177
154 177
155 177
156 177
157 177
158 177
159 177
160 177
161 177
162 177
163 177
164 177
165 177
166 177
167 177
168 177
169 177
170 177
171 177
172 177
173 177
174 177
175 177
176 177
177 177
178 177
179 177
180 177
181 177
182 177
183 177
184 177
185 177
186 177
187 177
188 177
189 177
190 177
191 177
192 177
193 177
150 178
151 178
152 178
153 178
154 178
155 178
156 178
157 178
158 178
159 178
160 178
161 178
162 178
163 178
164 178
165 178
166 178
167 178
168 178
169 178
170 178
171 178
172 178
173 178
174 178
175 178
176 178
177 178
178 178
179 178
180 178
181 178
182 178
183 178
184 178
185 178
186 178
187 178
188 178
189 178
190 178
191 178
192 178
193 178
150 179
151 179
152 179
153 179
154 179
155 179
156 179
157 179
158 179
159 179
160 179
161 179
162 179
163 179
164 179
165 179
166 179
167 179
168 179
169 179
170 179
171 179
172 179
173 179
174 179
175 179
176 179
177 179
178 179
179 179
180 179
181 179
182 179
183 179
184 179
185 179
186 179
187 179
188 179
189 179
190 179
191 179
192 179
193 179
150 180
151 180
152 180
153 180
154 180
155 180
156 180
157 180
158 180
159 180
160 180
161 180
162 180
163 180
164 180
165 180
166 180
167 180
168 180
169 180
170 180
171 180
172 180
173 180
174 180
175 180
176 180
177 180
178 180
179 180
180 180
181 180
182 180
183 180
184 180
185 180
186 180
187 180
188 180
189 180
190 180
191 180
192 180
193 180
150 181
151 181
152 181
153 181
154 181
155 181
156 181
157 181
158 181
159 181
160 181
161 181
162 181
163 181
164 181
165 181
166 181
167 181
168 181
169 181
170 181
171 181
172 181
173 181
174 181
175 181
176 181
177 181
178 181
179 181
180 181
181 181
182 181
183 181
184 181
185 181
186 181
187 181
188 181
189 181
190 181
191 181
192 181
193 181
150 182
151 182
152 182
153 182
154 182
155 182
156 182
157 182
158 182
159 182
160 182
161 182
162 182
163 182
164 182
165 182
166 182
167 182
168 182
169 182
170 182
171 182
172 182
173 182
174 182
175 182
176 182
177 182
178 182
179 182
180 182
181 182
182 182
183 182
184 182
185 182
186 182
187 182
188 182
189 182
190 182
191 182
192 182
193 182
150 183
151 183
152 183
153 183
154 183
155 183
156 183
157 183
158 183
159 183
160 183
161 183
162 183
163 183
164 183
165 183
166 183
167 183
168 183
169 183
170 183
171 183
172 183
173 183
174 183
175 183
176 183
177 183
178 183
179 183
180 183
181 183
182 183
183 183
184 183
185 183
186 183
187 183
188 183
189 183
190 183
191 183
192 183
193 183
150 184
151 184
152 184
153 184
154 184
155 184
156 184
157 184
158 184
159 184
160 184
161 184
162 184
163 184
164 184
165 184
166 184
167 184
168 184
169 184
170 184
171 184
172 184
173 184
174 184
175 184
176 184
177 184
178 184
179 184
180 184
181 184
182 184
183 184
184 184
185 184
186 184
187 184
188 184
189 184
190 184
191 184
192 184
193 184
150 185
151 185
152 185
153 185
154 185
155 185
156 185
157 185
158 185
159 185
160 185
161 185
162 185
163 185
164 185
165 185
166 185
167 185
168 185
169 185
170 185
171 185
172 185
173 185
174 185
175 185
176 185
177 185
178 185
179 185
180 185
181 185
182 185
183 185
184 185
185 185
186 185
187 185
188 185
189 185
190 185
191 185
192 185
193 185
150 186
151 186
152 186
153 186
154 186
155 186
156 186
157 186
158 186
159 186
160 186
161 186
162 186
163 186
164 186
165 186
166 186
167 186
168 186
169 186
170 186
171 186
172 186
173 186
174 186
175 186
176 186
177 186
178 186
179 186
180 186
181 186
182 186
183 186
184 186
185 186
186 186
187 186
188 186
189 186
190 186
191 186
192 186
193 186
150 187
151 187
152 187
153 187
154 187
155 187
156 187
157 187
158 187
159 187
160 187
161 187
162 187
163 187
164 187
165 187
166 187
167 187
168 187
169 187
170 187
171 187
172 187
173 187
174 187
175 187
176 187
177 187
178 187
179 187
180 187
181 187
182 187
183 187
184 187
185 187
186 187
187 187
188 187
189 187
190 187
191 187
192 187
193 187
150 188
151 188
152 188
153 188
154 188
155 188
156 188
157 188
158 188
159 188
160 188
161 188
162 188
163 188
164 188
165 188
166 188
167 188
168 188
169 188
170 188
171 188
172 188
173 188
174 188
175 188
176 188
177 188
178 188
179 188
180 188
181 188
182 188
183 188
184 188
185 188
186 188
187 188
188 188
189 188
190 188
191 188
192 188
193 188
150 189
151 189
152 189
153 189
154 189
155 189
156 189
157 189
158 189
159 189
160 189
161 189
162 189
163 189
164 189
165 189
166 189
167 189
168 189
169 189
170 189
171 189
172 189
173 189
174 189
175 189
176 189
177 189
178 189
179 189
180 189
181 189
182 189
183 189
184 189
185 189
186 189
187 189
188 189
189 189
190 189
191 189
192 189
193 189
150 190
151 190
152 190
153 190
154 190
155 190
156 190
157 190
158 190
159 190
160 190
161 190
162 190
163 190
164 190
165 190
166 190
167 190
168 190
169 190
170 190
171 190
172 190
173 190
174 190
175 190
176 190
177 190
178 190
179 190
180 190
181 190
182 190
183 190
184 190
185 190
186 190
187 190
188 190
189 190
190 190
191 190
192 190
193 190
150 191
151 191
152 191
153 191
154 191
155 191
156 191
157 191
158 191
159 191
160 191
161 191
162 191
163 191
164 191
165 191
166 191
167 191
168 191
169 191
170 191
171 191
172 191
173 191
174 191
175 191
176 191
177 191
178 191
179 191
180 191
181 191
182 191
183 191
184 191
185 191
186 191
187 191
188 191
189 191
190 191
191 191
192 191
193 191
150 192
151 192
152 192
153 192
154 192
155 192
156 192
157 192
158 192
159 192
160 192
161 192
162 192
163 192
164 192
165 192
166 192
167 192
168 192
169 192
170 192
171 192
172 192
173 192
174 192
175 192
176 192
177 192
178 192
179 192
180 192
181 192
182 192
183 192
184 192
185 192
186 192
187 192
188 192
189 192
190 192
191 192
192 192
193 192
150 193
151 193
152 193
153 193
154 193
155 193
156 193
157 193
158 193
159 193
160 193
161 193
162 193
163 193
164 193
165 193
166 193
167 193
168 193
169 193
170 193
171 193
172 193
173 193
174 193
175 193
176 193
177 193
178 193
179 193
180 193
181 193
182 193
183 193
184 193
185 193
186 193
187 193
188 193
189 193
190 193
191 193
192 193
193 193
150 194
151 194
152 194
153 194
154 194
155 194
156 194
157 194
158 194
159 194
160 194
161 194
162 194
163 194
164 194
165 194
166 194
167 194
168 194
169 194
170 194
171 194
172 194
173 194
174 194
175 194
176 194
177 194
178 194
179 194
180 194
181 194
182 194
183 194
184 194
185 194
186 194
187 194
188 194
189 194
190 194
191 194
192 194
193 194
302 239
303 239
304 239
305 239
306 239
307 239
308 239
309 239
310 239
311 239
312 239
313 239
314 239
315 239
316 239
317 239
318 239
319 239
320 239
321 239
322 239
323 239
324 239
325 239
326 239
327 239
328 239
329 239
330 239
331 239
332 239
333 239
334 239
335 239
336 239
337 239
338 239
339 239
340 239
341 239
342 239
343 239
344 239
345 239
302 240
303 240
304 240
305 240
306 240
307 240
308 240
309 240
310 240
311 240
312 240
313 240
314 240
315 240
316 240
317 240
318 240
319 240
320 240
321 240
322 240
323 240
324 240
325 240
326 240
327 240
328 240
329 240
330 240
331 240
332 240
333 240
334 240
335 240
336 240
337 240
338 240
339 240
340 240
341 240
342 240
343 240
344 240
345 240
302 241
303 241
304 241
305 241
306 241
307 241
308 241
309 241
310 241
311 241
312 241
313 241
314 241
315 241
316 241
317 241
318 241
319 241
320 241
321 241
322 241
323 241
324 241
325 241
326 241
327 241
328 241
329 241
330 241
331 241
332 241
333 241
334 241
335 241
336 241
337 241
338 241
339 241
340 241
341 241
342 241
343 241
344 241
345 241
302 242
303 242
304 242
305 242
306 242
307 242
308 242
309 242
310 242
311 242
312 242
313 242
314 242
315 242
316 242
317 242
318 242
319 242
320 242
321 242
322 242
323 242
324 242
325 242
326 242
327 242
328 242
329 242
330 242
331 242
332 242
333 242
334 242
335 242
336 242
337 242
338 242
339 242
340 242
341 242
342 242
343 242
344 242
345 242
302 243
303 243
304 243
305 243
306 243
307 243
308 243
309 243
310 243
311 243
312 243
313 243
314 243
315 243
316 243
317 243
318 243
319 243
320 243
321 243
322 243
323 243
324 243
325 243
326 243
327 243
328 243
329 243
330 243
331 243
332 243
333 243
334 243
335 243
336 243
337 243
338 243
339 243
340 243
341 243
342 243
343 243
344 243
345 243
302 244
303 244
304 244
305 244
306 244
307 244
308 244
309 244
310 244
311 244
312 244
313 244
314 244
315 244
316 244
317 244
318 244
319 244
320 244
321 244
322 244
323 244
324 244
325 244
326 244
327 244
328 244
329 244
330 244
331 244
332 244
333 244
334 244
335 244
336 244
337 244
338 244
339 244
340 244
341 244
342 244
343 244
344 244
345 244
302 245
303 245
304 245
305 245
306 245
307 245
308 245
309 245
310 245
311 245
312 245
313 245
314 245
315 245
316 245
317 245
318 245
319 245
320 245
321 245
322 245
323 245
324 245
325 245
326 245
327 245
328 245
329 245
330 245
331 245
332 245
333 245
334 245
335 245
336 245
337 245
338 245
339 245
340 245
341 245
342 245
343 245
344 245
345 245
302 246
303 246
304 246
305 246
306 246
307 246
308 246
309 246
310 246
311 246
312 246
313 246
314 246
315 246
316 246
317 246
318 246
319 246
320 246
321 246
322 246
323 246
324 246
325 246
326 246
327 246
328 246
329 246
330 246
331 246
332 246
333 246
334 246
335 246
336 246
337 246
338 246
339 246
340 246
341 246
342 246
343 246
344 246
345 246
302 247
303 247
304 247
305 247
306 247
307 247
308 247
309 247
310 247
311 247
312 247
313 247
314 247
315 247
316 247
317 247
318 247
319 247
320 247
321 247
322 247
323 247
324 247
325 247
326 247
327 247
328 247
329 247
330 247
331 247
332 247
333 247
334 247
335 247
336 247
337 247
338 247
339 247
340 247
341 247
342 247
343 247
344 247
345 247
302 248
303 248
304 248
305 248
306 248
307 248
308 248
309 248
310 248
311 248
312 248
313 248
314 248
315 248
316 248
317 248
318 248
319 248
320 248
321 248
322 248
323 248
324 248
325 248
326 248
327 248
328 248
329 248
330 248
331 248
332 248
333 248
334 248
335 248
336 248
337 248
338 248
339 248
340 248
341 248
342 248
343 248
344 248
345 248
302 249
303 249
304 249
305 249
306 249
307 249
308 249
309 249
310 249
311 249
312 249
313 249
314 249
315 249
316 249
317 249
318 249
319 249
320 249
321 249
322 249
323 249
324 249
325 249
326 249
327 249
328 249
329 249
330 249
331 249
332 249
333 249
334 249
335 249
336 249
337 249
338 249
339 249
340 249
341 249
342 249
343 249
344 249
345 249
302 250
303 250
304 250
305 250
306 250
307 250
308 250
309 250
310 250
311 250
312 250
313 250
314 250
315 250
316 250
317 250
318 250
319 250
320 250
321 250
322 250
323 250
324 250
325 250
326 250
327 250
328 250
329 250
330 250
331 250
332 250
333 250
334 250
335 250
336 250
337 250
338 250
339 250
340 250
341 250
342 250
343 250
344 250
345 250
302 251
303 251
304 251
305 251
306 251
307 251
308 251
309 251
310 251
311 251
312 251
313 251
314 251
315 251
316 251
317 251
318 251
319 251
320 251
321 251
322 251
323 251
324 251
325 251
326 251
327 251
328 251
329 251
330 251
331 251
332 251
333 251
334 251
335 251
336 251
337 251
338 251
339 251
340 251
341 251
342 251
343 251
344 251
345 251
302 252
303 252
304 252
305 252
306 252
307 252
308 252
309 252
310 252
311 252
312 252
313 252
314 252
315 252
316 252
317 252
318 252
319 252
320 252
321 252
322 252
323 252
324 252
325 252
326 252
327 252
328 252
329 252
330 252
331 252
332 252
333 252
334 252
335 252
336 252
337 252
338 252
339 252
340 252
341 252
342 252
343 252
344 252
345 252
302 253
303 253
304 253
305 253
306 253
307 253
308 253
309 253
310 253
311 253
312 253
313 253
314 253
315 253
316 253
317 253
318 253
319 253
320 253
321 253
322 253
323 253
324 253
325 253
326 253
327 253
328 253
329 253
330 253
331 253
332 253
333 253
334 253
335 253
336 253
337 253
338 253
339 253
340 253
341 253
342 253
343 253
344 253
345 253
302 254
303 254
304 254
305 254
306 254
307 254
308 254
309 254
310 254
311 254
312 254
313 254
314 254
315 254
316 254
317 254
318 254
319 254
320 254
321 254
322 254
323 254
324 254
325 254
326 254
327 254
328 254
329 254
330 254
331 254
332 254
333 254
334 254
335 254
336 254
337 254
338 254
339 254
340 254
341 254
342 254
343 254
344 254
345 254
302 255
303 255
304 255
305 255
306 255
307 255
308 255
309 255
310 255
311 255
312 255
313 255
314 255
315 255
316 255
317 255
318 255
319 255
320 255
321 255
322 255
323 255
324 255
325 255
326 255
327 255
328 255
329 255
330 255
331 255
332 255
333 255
334 255
335 255
336 255
337 255
338 255
339 255
340 255
341 255
342 255
343 255
344 255
345 255
302 256
303 256
304 256
305 256
306 256
307 256
308 256
309 256
310 256
311 256
312 256
313 256
314 256
315 256
316 256
317 256
318 256
319 256
320 256
321 256
322 256
323 256
324 256
325 256
326 256
327 256
328 256
329 256
330 256
331 256
332 256
333 256
334 256
335 256
336 256
337 256
338 256
339 256
340 256
341 256
342 256
343 256
344 256
345 256
302 257
303 257
304 257
305 257
306 257
307 257
308 257
309 257
310 257
311 257
312 257
313 257
314 257
315 257
316 257
317 257
318 257
319 257
320 257
321 257
322 257
323 257
324 257
325 257
326 257
327 257
328 257
329 257
330 257
331 257
332 257
333 257
334 257
335 257
336 257
337 257
338 257
339 257
340 257
341 257
342 257
343 257
344 257
345 257
302 258
303 258
304 258
305 258
306 258
307 258
308 258
309 258
310 258
311 258
312 258
313 258
314 258
315 258
316 258
317 258
318 258
319 258
320 258
321 258
322 258
323 258
324 258
325 258
326 258
327 258
328 258
329 258
330 258
331 258
332 258
333 258
334 258
335 258
336 258
337 258
338 258
339 258
340 258
341 258
342 258
343 258
344 258
345 258
302 259
303 259
304 259
305 259
306 259
307 259
308 259
309 259
310 259
311 259
312 259
313 259
314 259
315 259
316 259
317 259
318 259
319 259
320 259
321 259
322 259
323 259
324 259
325 259
326 259
327 259
328 259
329 259
330 259
331 259
332 259
333 259
334 259
335 259
336 259
337 259
338 259
339 259
340 259
341 259
342 259
343 259
344 259
345 259
302 260
303 260
304 260
305 260
306 260
307 260
308 260
309 260
310 260
311 260
312 260
313 260
314 260
315 260
316 260
317 260
318 260
319 260
320 260
321 260
322 260
323 260
324 260
325 260
326 260
327 260
328 260
329 260
330 260
331 260
332 260
333 260
334 260
335 260
336 260
337 260
338 260
339 260
340 260
341 260
342 260
343 260
344 260
345 260
302 261
303 261
304 261
305 261
306 261
307 261
308 261
309 261
310 261
311 261
312 261
313 261
314 261
315 261
316 261
317 261
318 261
319 261
320 261
321 261
322 261
323 261
324 261
325 261
326 261
327 261
328 261
329 261
330 261
331 261
332 261
333 261
334 261
335 261
336 261
337 261
338 261
339 261
340 261
341 261
342 261
343 261
344 261
345 261
302 262
303 262
304 262
305 262
306 262
307 262
308 262
309 262
310 262
311 262
312 262
313 262
314 262
315 262
316 262
317 262
318 262
319 262
320 262
321 262
322 262
323 262
324 262
325 262
326 262
327 262
328 262
329 262
330 262
331 262
332 262
333 262
334 262
335 262
336 262
337 262
338 262
339 262
340 262
341 262
342 262
343 262
344 262
345 262
302 263
303 263
304 263
305 263
306 263
307 263
308 263
309 263
310 263
311 263
312 263
313 263
314 263
315 263
316 263
317 263
318 263
319 263
320 263
321 263
322 263
323 263
324 263
325 263
326 263
327 263
328 263
329 263
330 263
331 263
332 263
333 263
334 263
335 263
336 263
337 263
338 263
339 263
340 263
341 263
342 263
343 263
344 263
345 263
302 264
303 264
304 264
305 264
306 264
307 264
308 264
309 264
310 264
311 264
312 264
313 264
314 264
315 264
316 264
317 264
318 264
319 264
320 264
321 264
322 264
323 264
324 264
325 264
326 264
327 264
328 264
329 264
330 264
331 264
332 264
333 264
334 264
335 264
336 264
337 264
338 264
339 264
340 264
341 264
342 264
343 264
344 264
345 264
302 265
303 265
304 265
305 265
306 265
307 265
308 265
309 265
310 265
311 265
312 265
313 265
314 265
315 265
316 265
317 265
318 265
319 265
320 265
321 265
322 265
323 265
324 265
325 265
326 265
327 265
328 265
329 265
330 265
331 265
332 265
333 265
334 265
335 265
336 265
337 265
338 265
339 265
340 265
341 265
342 265
343 265
344 265
345 265
302 266
303 266
304 266
305 266
306 266
307 266
308 266
309 266
310 266
311 266
312 266
313 266
314 266
315 266
316 266
317 266
318 266
319 266
320 266
321 266
322 266
323 266
324 266
325 266
326 266
327 266
328 266
329 266
330 266
331 266
332 266
333 266
334 266
335 266
336 266
337 266
338 266
339 266
340 266
341 266
342 266
343 266
344 266
345 266
302 267
303 267
304 267
305 267
306 267
307 267
308 267
309 267
310 267
311 267
312 267
313 267
314 267
315 267
316 267
317 267
318 267
319 267
320 267
321 267
322 267
323 267
324 267
325 267
326 267
327 267
328 267
329 267
330 267
331 267
332 267
333 267
334 267
335 267
336 267
337 267
338 267
339 267
340 267
341 267
342 267
343 267
344 267
345 267
302 268
303 268
304 268
305 268
306 268
307 268
308 268
309 268
310 268
311 268
312 268
313 268
314 268
315 268
316 268
317 268
318 268
319 268
320 268
321 268
322 268
323 268
324 268
325 268
326 268
327 268
328 268
329 268
330 268
331 268
332 268
333 268
334 268
335 268
336 268
337 268
338 268
339 268
340 268
341 268
342 268
343 268
344 268
345 268
302 269
303 269
304 269
305 269
306 269
307 269
308 269
309 269
310 269
311 269
312 269
313 269
314 269
315 269
316 269
317 269
318 269
319 269
320 269
321 269
322 269
323 269
324 269
325 269
326 269
327 269
328 269
329 269
330 269
331 269
332 269
333 269
334 269
335 269
336 269
337 269
338 269
339 269
340 269
341 269
342 269
343 269
344 269
345 269
302 270
303 270
304 270
305 270
306 270
307 270
308 270
309 270
310 270
311 270
312 270
313 270
314 270
315 270
316 270
317 270
318 270
319 270
320 270
321 270
322 270
323 270
324 270
325 270
326 270
327 270
328 270
329 270
330 270
331 270
332 270
333 270
334 270
335 270
336 270
337 270
338 270
339 270
340 270
341 270
342 270
343 270
344 270
345 270
302 271
303 271
304 271
305 271
306 271
307 271
308 271
309 271
310 271
311 271
312 271
313 271
314 271
315 271
316 271
317 271
318 271
319 271
320 271
321 271
322 271
323 271
324 271
325 271
326 271
327 271
328 271
329 271
330 271
331 271
332 271
333 271
334 271
335 271
336 271
337 271
338 271
339 271
340 271
341 271
342 271
343 271
344 271
345 271
302 272
303 272
304 272
305 272
306 272
307 272
308 272
309 272
310 272
311 272
312 272
313 272
314 272
315 272
316 272
317 272
318 272
319 272
320 272
321 272
322 272
323 272
324 272
325 272
326 272
327 272
328 272
329 272
330 272
331 272
332 272
333 272
334 272
335 272
336 272
337 272
338 272
339 272
340 272
341 272
342 272
343 272
344 272
345 272
302 273
303 273
304 273
305 273
306 273
307 273
308 273
309 273
310 273
311 273
312 273
313 273
314 273
315 273
316 273
317 273
318 273
319 273
320 273
321 273
322 273
323 273
324 273
325 273
326 273
327 273
328 273
329 273
330 273
331 273
332 273
333 273
334 273
335 273
336 273
337 273
338 273
339 273
340 273
341 273
342 273
343 273
344 273
345 273
302 274
303 274
304 274
305 274
306 274
307 274
308 274
309 274
310 274
311 274
312 274
313 274
314 274
315 274
316 274
317 274
318 274
319 274
320 274
321 274
322 274
323 274
324 274
325 274
326 274
327 274
328 274
329 274
330 274
331 274
332 274
333 274
334 274
335 274
336 274
337 274
338 274
339 274
340 274
341 274
342 274
343 274
344 274
345 274
302 275
303 275
304 275
305 275
306 275
307 275
308 275
309 275
310 275
311 275
312 275
313 275
314 275
315 275
316 275
317 275
318 275
319 275
320 275
321 275
322 275
323 275
324 275
325 275
326 275
327 275
328 275
329 275
330 275
331 275
332 275
333 275
334 275
335 275
336 275
337 275
338 275
339 275
340 275
341 275
342 275
343 275
344 275
345 275
302 276
303 276
304 276
305 276
306 276
307 276
308 276
309 276
310 276
311 276
312 276
313 276
314 276
315 276
316 276
317 276
318 276
319 276
320 276
321 276
322 276
323 276
324 276
325 276
326 276
327 276
328 276
329 276
330 276
331 276
332 276
333 276
334 276
335 276
336 276
337 276
338 276
339 276
340 276
341 276
342 276
343 276
344 276
345 276
302 277
303 277
304 277
305 277
306 277
307 277
308 277
309 277
310 277
311 277
312 277
313 277
314 277
315 277
316 277
317 277
318 277
319 277
320 277
321 277
322 277
323 277
324 277
325 277
326 277
327 277
328 277
329 277
330 277
331 277
332 277
333 277
334 277
335 277
336 277
337 277
338 277
339 277
340 277
341 277
342 277
343 277
344 277
345 277
302 278
303 278
304 278
305 278
306 278
307 278
308 278
309 278
310 278
311 278
312 278
313 278
314 278
315 278
316 278
317 278
318 278
319 278
320 278
321 278
322 278
323 278
324 278
325 278
326 278
327 278
328 278
329 278
330 278
331 278
332 278
333 278
334 278
335 278
336 278
337 278
338 278
339 278
340 278
341 278
342 278
343 278
344 278
345 278
302 279
303 279
304 279
305 279
306 279
307 279
308 279
309 279
310 279
311 279
312 279
313 279
314 279
315 279
316 279
317 279
318 279
319 279
320 279
321 279
322 279
323 279
324 279
325 279
326 279
327 279
328 279
329 279
330 279
331 279
332 279
333 279
334 279
335 279
336 279
337 279
338 279
339 279
340 279
341 279
342 279
343 279
344 279
345 279
302 280
303 280
304 280
305 280
306 280
307 280
308 280
309 280
310 280
311 280
312 280
313 280
314 280
315 280
316 280
317 280
318 280
319 280
320 280
321 280
322 280
323 280
324 280
325 280
326 280
327 280
328 280
329 280
330 280
331 280
332 280
333 280
334 280
335 280
336 280
337 280
338 280
339 280
340 280
341 280
342 280
343 280
344 280
345 280
302 281
303 281
304 281
305 281
306 281
307 281
308 281
309 281
310 281
311 281
312 281
313 281
314 281
315 281
316 281
317 281
318 281
319 281
320 281
321 281
322 281
323 281
324 281
325 281
326 281
327 281
328 281
329 281
330 281
331 281
332 281
333 281
334 281
335 281
336 281
337 281
338 281
339 281
340 281
341 281
342 281
343 281
344 281
345 281
302 282
303 282
304 282
305 282
306 282
307 282
308 282
309 282
310 282
311 282
312 282
313 282
314 282
315 282
316 282
317 282
318 282
319 282
320 282
321 282
322 282
323 282
324 282
325 282
326 282
327 282
328 282
329 282
330 282
331 282
332 282
333 282
334 282
335 282
336 282
337 282
338 282
339 282
340 282
341 282
342 282
343 282
344 282
345 282
302 283
303 283
304 283
305 283
306 283
307 283
308 283
309 283
310 283
311 283
312 283
313 283
314 283
315 283
316 283
317 283
318 283
319 283
320 283
321 283
322 283
323 283
324 283
325 283
326 283
327 283
328 283
329 283
330 283
331 283
332 283
333 283
334 283
335 283
336 283
337 283
338 283
339 283
340 283
341 283
342 283
343 283
344 283
345 283
302 284
303 284
304 284
305 284
306 284
307 284
308 284
309 284
310 284
311 284
312 284
313 284
314 284
315 284
316 284
317 284
318 284
319 284
320 284
321 284
322 284
323 284
324 284
325 284
326 284
327 284
328 284
329 284
330 284
331 284
332 284
333 284
334 284
335 284
336 284
337 284
338 284
339 284
340 284
341 284
342 284
343 284
344 284
345 284
302 285
303 285
304 285
305 285
306 285
307 285
308 285
309 285
310 285
311 285
312 285
313 285
314 285
315 285
316 285
317 285
318 285
319 285
320 285
321 285
322 285
323 285
324 285
325 285
326 285
327 285
328 285
329 285
330 285
331 285
332 285
333 285
334 285
335 285
336 285
337 285
338 285
339 285
340 285
341 285
342 285
343 285
344 285
345 285
302 286
303 286
304 286
305 286
306 286
307 286
308 286
309 286
310 286
311 286
312 286
313 286
314 286
315 286
316 286
317 286
318 286
319 286
320 286
321 286
322 286
323 286
324 286
325 286
326 286
327 286
328 286
329 286
330 286
331 286
332 286
333 286
334 286
335 286
336 286
337 286
338 286
339 286
340 286
341 286
342 286
343 286
344 286
345 286
302 287
303 287
304 287
305 287
306 287
307 287
308 287
309 287
310 287
311 287
312 287
313 287
314 287
315 287
316 287
317 287
318 287
319 287
320 287
321 287
322 287
323 287
324 287
325 287
326 287
327 287
328 287
329 287
330 287
331 287
332 287
333 287
334 287
335 287
336 287
337 287
338 287
339 287
340 287
341 287
342 287
343 287
344 287
345 287
302 288
303 288
304 288
305 288
306 288
307 288
308 288
309 288
310 288
311 288
312 288
313 288
314 288
315 288
316 288
317 288
318 288
319 288
320 288
321 288
322 288
323 288
324 288
325 288
326 288
327 288
328 288
329 288
330 288
331 288
332 288
333 288
334 288
335 288
336 288
337 288
338 288
339 288
340 288
341 288
342 288
343 288
344 288
345 288
302 289
303 289
304 289
305 289
306 289
307 289
308 289
309 289
310 289
311 289
312 289
313 289
314 289
315 289
316 289
317 289
318 289
319 289
320 289
321 289
322 289
323 289
324 289
325 289
326 289
327 289
328 289
329 289
330 289
331 289
332 289
333 289
334 289
335 289
336 289
337 289
338 289
339 289
340 289
341 289
342 289
343 289
344 289
345 289
302 290
303 290
304 290
305 290
306 290
307 290
308 290
309 290
310 290
311 290
312 290
313 290
314 290
315 290
316 290
317 290
318 290
319 290
320 290
321 290
322 290
323 290
324 290
325 290
326 290
327 290
328 290
329 290
330 290
331 290
332 290
333 290
334 290
335 290
336 290
337 290
338 290
339 290
340 290
341 290
342 290
343 290
344 290
345 290
302 291
303 291
304 291
305 291
306 291
307 291
308 291
309 291
310 291
311 291
312 291
313 291
314 291
315 291
316 291
317 291
318 291
319 291
320 291
321 291
322 291
323 291
324 291
325 291
326 291
327 291
328 291
329 291
330 291
331 291
332 291
333 291
334 291
335 291
336 291
337 291
338 291
339 291
340 291
341 291
342 291
343 291
344 291
345 291
454 336
455 336
456 336
457 336
458 336
459 336
460 336
461 336
462 336
463 336
464 336
465 336
466 336
467 336
468 336
469 336
470 336
471 336
472 336
473 336
474 336
475 336
476 336
477 336
478 336
479 336
480 336
481 336
482 336
483 336
484 336
485 336
486 336
487 336
488 336
489 336
490 336
491 336
492 336
493 336
494 336
495 336
496 336
497 336
454 337
455 337
456 337
457 337
458 337
459 337
460 337
461 337
462 337
463 337
464 337
465 337
466 337
467 337
468 337
469 337
470 337
471 337
472 337
473 337
474 337
475 337
476 337
477 337
478 337
479 337
480 337
481 337
482 337
483 337
484 337
485 337
486 337
487 337
488 337
489 337
490 337
491 337
492 337
493 337
494 337
495 337
496 337
497 337
454 338
455 338
456 338
457 338
458 338
459 338
460 338
461 338
462 338
463 338
464 338
465 338
466 338
467 338
468 338
469 338
470 338
471 338
472 338
473 338
474 338
475 338
476 338
477 338
478 338
479 338
480 338
481 338
482 338
483 338
484 338
485 338
486 338
487 338
488 338
489 338
490 338
491 338
492 338
493 338
494 338
495 338
496 338
497 338
454 339
455 339
456 339
457 339
458 339
459 339
460 339
461 339
462 339
463 339
464 339
465 339
466 339
467 339
468 339
469 339
470 339
471 339
472 339
473 339
474 339
475 339
476 339
477 339
478 339
479 339
480 339
481 339
482 339
483 339
484 339
485 339
486 339
487 339
488 339
489 339
490 339
491 339
492 339
493 339
494 339
495 339
496 339
497 339
454 340
455 340
456 340
457 340
458 340
459 340
460 340
461 340
462 340
463 340
464 340
465 340
466 340
467 340
468 340
469 340
470 340
471 340
472 340
473 340
474 340
475 340
476 340
477 340
478 340
479 340
480 340
481 340
482 340
483 340
484 340
485 340
486 340
487 340
488 340
489 340
490 340
491 340
492 340
493 340
494 340
495 340
496 340
497 340
454 341
455 341
456 341
457 341
458 341
459 341
460 341
461 341
462 341
463 341
464 341
465 341
466 341
467 341
468 341
469 341
470 341
471 341
472 341
473 341
474 341
475 341
476 341
477 341
478 341
479 341
480 341
481 341
482 341
483 341
484 341
485 341
486 341
487 341
488 341
489 341
490 341
491 341
492 341
493 341
494 341
495 341
496 341
497 341
454 342
455 342
456 342
457 342
458 342
459 342
460 342
461 342
462 342
463 342
464 342
465 342
466 342
467 342
468 342
469 342
470 342
471 342
472 342
473 342
474 342
475 342
476 342
477 342
478 342
479 342
480 342
481 342
482 342
483 342
484 342
485 342
486 342
487 342
488 342
489 342
490 342
491 342
492 342
493 342
494 342
495 342
496 342
497 342
454 343
455 343
456 343
457 343
458 343
459 343
460 343
461 343
462 343
463 343
464 343
465 343
466 343
467 343
468 343
469 343
470 343
471 343
472 343
473 343
474 343
475 343
476 343
477 343
478 343
479 343
480 343
481 343
482 343
483 343
484 343
485 343
486 343
487 343
488 343
489 343
490 343
491 343
492 343
493 343
494 343
495 343
496 343
497 343
454 344
455 344
456 344
457 344
458 344
459 344
460 344
461 344
462 344
463 344
464 344
465 344
466 344
467 344
468 344
469 344
470 344
471 344
472 344
473 344
474 344
475 344
476 344
477 344
478 344
479 344
480 344
481 344
482 344
483 344
484 344
485 344
486 344
487 344
488 344
489 344
490 344
491 344
492 344
493 344
494 344
495 344
496 344
497 344
454 345
455 345
456 345
457 345
458 345
459 345
460 345
461 345
462 345
463 345
464 345
465 345
466 345
467 345
468 345
469 345
470 345
471 345
472 345
473 345
474 345
475 345
476 345
477 345
478 345
479 345
480 345
481 345
482 345
483 345
484 345
485 345
486 345
487 345
488 345
489 345
490 345
491 345
492 345
493 345
494 345
495 345
496 345
497 345
454 346
455 346
456 346
457 346
458 346
459 346
460 346
461 346
462 346
463 346
464 346
465 346
466 346
467 346
468 346
469 346
470 346
471 346
472 346
473 346
474 346
475 346
476 346
477 346
478 346
479 346
480 346
481 346
482 346
483 346
484 346
485 346
486 346
487 346
488 346
489 346
490 346
491 346
492 346
493 346
494 346
495 346
496 346
497 346
454 347
455 347
456 347
457 347
458 347
459 347
460 347
461 347
462 347
463 347
464 347
465 347
466 347
467 347
468 347
469 347
470 347
471 347
472 347
473 347
474 347
475 347
476 347
477 347
478 347
479 347
480 347
481 347
482 347
483 347
484 347
485 347
486 347
487 347
488 347
489 347
490 347
491 347
492 347
493 347
494 347
495 347
496 347
497 347
454 348
455 348
456 348
457 348
458 348
459 348
460 348
461 348
462 348
463 348
464 348
465 348
466 348
467 348
468 348
469 348
470 348
471 348
472 348
473 348
474 348
475 348
476 348
477 348
478 348
479 348
480 348
481 348
482 348
483 348
484 348
485 348
486 348
487 348
488 348
489 348
490 348
491 348
492 348
493 348
494 348
495 348
496 348
497 348
454 349
455 349
456 349
457 349
458 349
459 349
460 349
461 349
462 349
463 349
464 349
465 349
466 349
467 349
468 349
469 349
470 349
471 349
472 349
473 349
474 349
475 349
476 349
477 349
478 349
479 349
480 349
481 349
482 349
483 349
484 349
485 349
486 349
487 349
488 349
489 349
490 349
491 349
492 349
493 349
494 349
495 349
496 349
497 349
454 350
455 350
456 350
457 350
458 350
459 350
460 350
461 350
462 350
463 350
464 350
465 350
466 350
467 350
468 350
469 350
470 350
471 350
472 350
473 350
474 350
475 350
476 350
477 350
478 350
479 350
480 350
481 350
482 350
483 350
484 350
485 350
486 350
487 350
488 350
489 350
490 350
491 350
492 350
493 350
494 350
495 350
496 350
497 350
454 351
455 351
456 351
457 351
458 351
459 351
460 351
461 351
462 351
463 351
464 351
465 351
466 351
467 351
468 351
469 351
470 351
471 351
472 351
473 351
474 351
475 351
476 351
477 351
478 351
479 351
480 351
481 351
482 351
483 351
484 351
485 351
486 351
487 351
488 351
489 351
490 351
491 351
492 351
493 351
494 351
495 351
496 351
497 351
454 352
455 352
456 352
457 352
458 352
459 352
460 352
461 352
462 352
463 352
464 352
465 352
466 352
467 352
468 352
469 352
470 352
471 352
472 352
473 352
474 352
475 352
476 352
477 352
478 352
479 352
480 352
481 352
482 352
483 352
484 352
485 352
486 352
487 352
488 352
489 352
490 352
491 352
492 352
493 352
494 352
495 352
496 352
497 352
454 353
455 353
456 353
457 353
458 353
459 353
460 353
461 353
462 353
463 353
464 353
465 353
466 353
467 353
468 353
469 353
470 353
471 353
472 353
473 353
474 353
475 353
476 353
477 353
478 353
479 353
480 353
481 353
482 353
483 353
484 353
485 353
486 353
487 353
488 353
489 353
490 353
491 353
492 353
493 353
494 353
495 353
496 353
497 353
454 354
455 354
456 354
457 354
458 354
459 354
460 354
461 354
462 354
463 354
464 354
465 354
466 354
467 354
468 354
469 354
470 354
471 354
472 354
473 354
474 354
475 354
476 354
477 354
478 354
479 354
480 354
481 354
482 354
483 354
484 354
485 354
486 354
487 354
488 354
489 354
490 354
491 354
492 354
493 354
494 354
495 354
496 354
497 354
454 355
455 355
456 355
457 355
458 355
459 355
460 355
461 355
462 355
463 355
464 355
465 355
466 355
467 355
468 355
469 355
470 355
471 355
472 355
473 355
474 355
475 355
476 355
477 355
478 355
479 355
480 355
481 355
482 355
483 355
484 355
485 355
486 355
487 355
488 355
489 355
490 355
491 355
492 355
493 355
494 355
495 355
496 355
497 355
454 356
455 356
456 356
457 356
458 356
459 356
460 356
461 356
462 356
463 356
464 356
465 356
466 356
467 356
468 356
469 356
470 356
471 356
472 356
473 356
474 356
475 356
476 356
477 356
478 356
479 356
480 356
481 356
482 356
483 356
484 356
485 356
486 356
487 356
488 356
489 356
490 356
491 356
492 356
493 356
494 356
495 356
496 356
497 356
454 357
455 357
456 357
457 357
458 357
459 357
460 357
461 357
462 357
463 357
464 357
465 357
466 357
467 357
468 357
469 357
470 357
471 357
472 357
473 357
474 357
475 357
476 357
477 357
478 357
479 357
480 357
481 357
482 357
483 357
484 357
485 357
486 357
487 357
488 357
489 357
490 357
491 357
492 357
493 357
494 357
495 357
496 357
497 357
454 358
455 358
456 358
457 358
458 358
459 358
460 358
461 358
462 358
463 358
464 358
465 358
466 358
467 358
468 358
469 358
470 358
471 358
472 358
473 358
474 358
475 358
476 358
477 358
478 358
479 358
480 358
481 358
482 358
483 358
484 358
485 358
486 358
487 358
488 358
489 358
490 358
491 358
492 358
493 358
494 358
495 358
496 358
497 358
454 359
455 359
456 359
457 359
458 359
459 359
460 359
461 359
462 359
463 359
464 359
465 359
466 359
467 359
468 359
469 359
470 359
471 359
472 359
473 359
474 359
475 359
476 359
477 359
478 359
479 359
480 359
481 359
482 359
483 359
484 359
485 359
486 359
487 359
488 359
489 359
490 359
491 359
492 359
493 359
494 359
495 359
496 359
497 359
454 360
455 360
456 360
457 360
458 360
459 360
460 360
461 360
462 360
463 360
464 360
465 360
466 360
467 360
468 360
469 360
470 360
471 360
472 360
473 360
474 360
475 360
476 360
477 360
478 360
479 360
480 360
481 360
482 360
483 360
484 360
485 360
486 360
487 360
488 360
489 360
490 360
491 360
492 360
493 360
494 360
495 360
496 360
497 360
454 361
455 361
456 361
457 361
458 361
459 361
460 361
461 361
462 361
463 361
464 361
465 361
466 361
467 361
468 361
469 361
470 361
471 361
472 361
473 361
474 361
475 361
476 361
477 361
478 361
479 361
480 361
481 361
482 361
483 361
484 361
485 361
486 361
487 361
488 361
489 361
490 361
491 361
492 361
493 361
494 361
495 361
496 361
497 361
454 362
455 362
456 362
457 362
458 362
459 362
460 362
461 362
462 362
463 362
464 362
465 362
466 362
467 362
468 362
469 362
470 362
471 362
472 362
473 362
474 362
475 362
476 362
477 362
478 362
479 362
480 362
481 362
482 362
483 362
484 362
485 362
486 362
487 362
488 362
489 362
490 362
491 362
492 362
493 362
494 362
495 362
496 362
497 362
454 363
455 363
456 363
457 363
458 363
459 363
460 363
461 363
462 363
463 363
464 363
465 363
466 363
467 363
468 363
469 363
470 363
471 363
472 363
473 363
474 363
475 363
476 363
477 363
478 363
479 363
480 363
481 363
482 363
483 363
484 363
485 363
486 363
487 363
488 363
489 363
490 363
491 363
492 363
493 363
494 363
495 363
496 363
497 363
454 364
455 364
456 364
457 364
458 364
459 364
460 364
461 364
462 364
463 364
464 364
465 364
466 364
467 364
468 364
469 364
470 364
471 364
472 364
473 364
474 364
475 364
476 364
477 364
478 364
479 364
480 364
481 364
482 364
483 364
484 364
485 364
486 364
487 364
488 364
489 364
490 364
491 364
492 364
493 364
494 364
495 364
496 364
497 364
454 365
455 365
456 365
457 365
458 365
459 365
460 365
461 365
462 365
463 365
464 365
465 365
466 365
467 365
468 365
469 365
470 365
471 365
472 365
473 365
474 365
475 365
476 365
477 365
478 365
479 365
480 365
481 365
482 365
483 365
484 365
485 365
486 365
487 365
488 365
489 365
490 365
491 365
492 365
493 365
494 365
495 365
496 365
497 365
454 366
455 366
456 366
457 366
458 366
459 366
460 366
461 366
462 366
463 366
464 366
465 366
466 366
467 366
468 366
469 366
470 366
471 366
472 366
473 366
474 366
475 366
476 366
477 366
478 366
479 366
480 366
481 366
482 366
483 366
484 366
485 366
486 366
487 366
488 366
489 366
490 366
491 366
492 366
493 366
494 366
495 366
496 366
497 366
454 367
455 367
456 367
457 367
458 367
459 367
460 367
461 367
462 367
463 367
464 367
465 367
466 367
467 367
468 367
469 367
470 367
471 367
472 367
473 367
474 367
475 367
476 367
477 367
478 367
479 367
480 367
481 367
482 367
483 367
484 367
485 367
486 367
487 367
488 367
489 367
490 367
491 367
492 367
493 367
494 367
495 367
496 367
497 367
454 368
455 368
456 368
457 368
458 368
459 368
460 368
461 368
462 368
463 368
464 368
465 368
466 368
467 368
468 368
469 368
470 368
471 368
472 368
473 368
474 368
475 368
476 368
477 368
478 368
479 368
480 368
481 368
482 368
483 368
484 368
485 368
486 368
487 368
488 368
489 368
490 368
491 368
492 368
493 368
494 368
495 368
496 368
497 368
454 369
455 369
456 369
457 369
458 369
459 369
460 369
461 369
462 369
463 369
464 369
465 369
466 369
467 369
468 369
469 369
470 369
471 369
472 369
473 369
474 369
475 369
476 369
477 369
478 369
479 369
480 369
481 369
482 369
483 369
484 369
485 369
486 369
487 369
488 369
489 369
490 369
491 369
492 369
493 369
494 369
495 369
496 369
497 369
454 370
455 370
456 370
457 370
458 370
459 370
460 370
461 370
462 370
463 370
464 370
465 370
466 370
467 370
468 370
469 370
470 370
471 370
472 370
473 370
474 370
475 370
476 370
477 370
478 370
479 370
480 370
481 370
482 370
483 370
484 370
485 370
486 370
487 370
488 370
489 370
490 370
491 370
492 370
493 370
494 370
495 370
496 370
497 370
454 371
455 371
456 371
457 371
458 371
459 371
460 371
461 371
462 371
463 371
464 371
465 371
466 371
467 371
468 371
469 371
470 371
471 371
472 371
473 371
474 371
475 371
476 371
477 371
478 371
479 371
480 371
481 371
482 371
483 371
484 371
485 371
486 371
487 371
488 371
489 371
490 371
491 371
492 371
493 371
494 371
495 371
496 371
497 371
454 372
455 372
456 372
457 372
458 372
459 372
460 372
461 372
462 372
463 372
464 372
465 372
466 372
467 372
468 372
469 372
470 372
471 372
472 372
473 372
474 372
475 372
476 372
477 372
478 372
479 372
480 372
481 372
482 372
483 372
484 372
485 372
486 372
487 372
488 372
489 372
490 372
491 372
492 372
493 372
494 372
495 372
496 372
497 372
574 417
575 417
576 417
577 417
578 417
579 417
580 417
581 417
582 417
583 417
584 417
585 417
586 417
587 417
588 417
589 417
590 417
591 417
592 417
593 417
594 417
595 417
596 417
597 417
598 417
599 417
600 417
601 417
602 417
603 417
604 417
605 417
606 417
607 417
608 417
609 417
610 417
611 417
612 417
613 417
614 417
615 417
616 417
617 417
574 418
575 418
576 418
577 418
578 418
579 418
580 418
581 418
582 418
583 418
584 418
585 418
586 418
587 418
588 418
589 418
590 418
591 418
592 418
593 418
594 418
595 418
596 418
597 418
598 418
599 418
600 418
601 418
602 418
603 418
604 418
605 418
606 418
607 418
608 418
609 418
610 418
611 418
612 418
613 418
614 418
615 418
616 418
617 418
574 419
575 419
576 419
577 419
578 419
579 419
580 419
581 419
582 419
583 419
584 419
585 419
586 419
587 419
588 419
589 419
590 419
591 419
592 419
593 419
594 419
595 419
596 419
597 419
598 419
599 419
600 419
601 419
602 419
603 419
604 419
605 419
606 419
607 419
608 419
609 419
610 419
611 419
612 419
613 419
614 419
615 419
616 419
617 419
574 420
575 420
576 420
577 420
578 420
579 420
580 420
581 420
582 420
583 420
584 420
585 420
586 420
587 420
588 420
589 420
590 420
591 420
592 420
593 420
594 420
595 420
596 420
597 420
598 420
599 420
600 420
601 420
602 420
603 420
604 420
605 420
606 420
607 420
608 420
609 420
610 420
611 420
612 420
613 420
614 420
615 420
616 420
617 420
574 421
575 421
576 421
577 421
578 421
579 421
580 421
581 421
582 421
583 421
584 421
585 421
586 421
587 421
588 421
589 421
590 421
591 421
592 421
593 421
594 421
595 421
596 421
597 421
598 421
599 421
600 421
601 421
602 421
603 421
604 421
605 421
606 421
607 421
608 421
609 421
610 421
611 421
612 421
613 421
614 421
615 421
616 421
617 421
574 422
575 422
576 422
577 422
578 422
579 422
580 422
581 422
582 422
583 422
584 422
585 422
586 422
587 422
588 422
589 422
590 422
591 422
592 422
593 422
594 422
595 422
596 422
597 422
598 422
599 422
600 422
601 422
602 422
603 422
604 422
605 422
606 422
607 422
608 422
609 422
610 422
611 422
612 422
613 422
614 422
615 422
616 422
617 422
574 423
575 423
576 423
577 423
578 423
579 423
580 423
581 423
582 423
583 423
584 423
585 423
586 423
587 423
588 423
589 423
590 423
591 423
592 423
593 423
594 423
595 423
596 423
597 423
598 423
599 423
600 423
601 423
602 423
603 423
604 423
605 423
606 423
607 423
608 423
609 423
610 423
611 423
612 423
613 423
614 423
615 423
616 423
617 423
574 424
575 424
576 424
577 424
578 424
579 424
580 424
581 424
582 424
583 424
584 424
585 424
586 424
587 424
588 424
589 424
590 424
591 424
592 424
593 424
594 424
595 424
596 424
597 424
598 424
599 424
600 424
601 424
602 424
603 424
604 424
605 424
606 424
607 424
608 424
609 424
610 424
611 424
612 424
613 424
614 424
615 424
616 424
617 424
574 425
575 425
576 425
577 425
578 425
579 425
580 425
581 425
582 425
583 425
584 425
585 425
586 425
587 425
588 425
589 425
590 425
591 425
592 425
593 425
594 425
595 425
596 425
597 425
598 425
599 425
600 425
601 425
602 425
603 425
604 425
605 425
606 425
607 425
608 425
609 425
610 425
611 425
612 425
613 425
614 425
615 425
616 425
617 425
574 426
575 426
576 426
577 426
578 426
579 426
580 426
581 426
582 426
583 426
584 426
585 426
586 426
587 426
588 426
589 426
590 426
591 426
592 426
593 426
594 426
595 426
596 426
597 426
598 426
599 426
600 426
601 426
602 426
603 426
604 426
605 426
606 426
607 426
608 426
609 426
610 426
611 426
612 426
613 426
614 426
615 426
616 426
617 426
574 427
575 427
576 427
577 427
578 427
579 427
580 427
581 427
582 427
583 427
584 427
585 427
586 427
587 427
588 427
589 427
590 427
591 427
592 427
593 427
594 427
595 427
596 427
597 427
598 427
599 427
600 427
601 427
602 427
603 427
604 427
605 427
606 427
607 427
608 427
609 427
610 427
611 427
612 427
613 427
614 427
615 427
616 427
617 427
574 428
575 428
576 428
577 428
578 428
579 428
580 428
581 428
582 428
583 428
584 428
585 428
586 428
587 428
588 428
589 428
590 428
591 428
592 428
593 428
594 428
595 428
596 428
597 428
598 428
599 428
600 428
601 428
602 428
603 428
604 428
605 428
606 428
607 428
608 428
609 428
610 428
611 428
612 428
613 428
614 428
615 428
616 428
617 428
574 429
575 429
576 429
577 429
578 429
579 429
580 429
581 429
582 429
583 429
584 429
585 429
586 429
587 429
588 429
589 429
590 429
591 429
592 429
593 429
594 429
595 429
596 429
597 429
598 429
599 429
600 429
601 429
602 429
603 429
604 429
605 429
606 429
607 429
608 429
609 429
610 429
611 429
612 429
613 429
614 429
615 429
616 429
617 429
574 430
575 430
576 430
577 430
578 430
579 430
580 430
581 430
582 430
583 430
584 430
585 430
586 430
587 430
588 430
589 430
590 430
591 430
592 430
593 430
594 430
595 430
596 430
597 430
598 430
599 430
600 430
601 430
602 430
603 430
604 430
605 430
606 430
607 430
608 430
609 430
610 430
611 430
612 430
613 430
614 430
615 430
616 430
617 430
574 431
575 431
576 431
577 431
578 431
579 431
580 431
581 431
582 431
583 431
584 431
585 431
586 431
587 431
588 431
589 431
590 431
591 431
592 431
593 431
594 431
595 431
596 431
597 431
598 431
599 431
600 431
601 431
602 431
603 431
604 431
605 431
606 431
607 431
608 431
609 431
610 431
611 431
612 431
613 431
614 431
615 431
616 431
617 431
574 432
575 432
576 432
577 432
578 432
579 432
580 432
581 432
582 432
583 432
584 432
585 432
586 432
587 432
588 432
589 432
590 432
591 432
592 432
593 432
594 432
595 432
596 432
597 432
598 432
599 432
600 432
601 432
602 432
603 432
604 432
605 432
606 432
607 432
608 432
609 432
610 432
611 432
612 432
613 432
614 432
615 432
616 432
617 432
574 433
575 433
576 433
577 433
578 433
579 433
580 433
581 433
582 433
583 433
584 433
585 433
586 433
587 433
588 433
589 433
590 433
591 433
592 433
593 433
594 433
595 433
596 433
597 433
598 433
599 433
600 433
601 433
602 433
603 433
604 433
605 433
606 433
607 433
608 433
609 433
610 433
611 433
612 433
613 433
614 433
615 433
616 433
617 433
574 434
575 434
576 434
577 434
578 434
579 434
580 434
581 434
582 434
583 434
584 434
585 434
586 434
587 434
588 434
589 434
590 434
591 434
592 434
593 434
594 434
595 434
596 434
597 434
598 434
599 434
600 434
601 434
602 434
603 434
604 434
605 434
606 434
607 434
608 434
609 434
610 434
611 434
612 434
613 434
614 434
615 434
616 434
617 434
574 435
575 435
576 435
577 435
578 435
579 435
580 435
581 435
582 435
583 435
584 435
585 435
586 435
587 435
588 435
589 435
590 435
591 435
592 435
593 435
594 435
595 435
596 435
597 435
598 435
599 435
600 435
601 435
602 435
603 435
604 435
605 435
606 435
607 435
608 435
609 435
610 435
611 435
612 435
613 435
614 435
615 435
616 435
617 435
574 436
575 436
576 436
577 436
578 436
579 436
580 436
581 436
582 436
583 436
584 436
585 436
586 436
587 436
588 436
589 436
590 436
591 436
592 436
593 436
594 436
595 436
596 436
597 436
598 436
599 436
600 436
601 436
602 436
603 436
604 436
605 436
606 436
607 436
608 436
609 436
610 436
611 436
612 436
613 436
614 436
615 436
616 436
617 436
574 437
575 437
576 437
577 437
578 437
579 437
580 437
581 437
582 437
583 437
584 437
585 437
586 437
587 437
588 437
589 437
590 437
591 437
592 437
593 437
594 437
595 437
596 437
597 437
598 437
599 437
600 437
601 437
602 437
603 437
604 437
605 437
606 437
607 437
608 437
609 437
610 437
611 437
612 437
613 437
614 437
615 437
616 437
617 437
574 438
575 438
576 438
577 438
578 438
579 438
580 438
581 438
582 438
583 438
584 438
585 438
586 438
587 438
588 438
589 438
590 438
591 438
592 438
593 438
594 438
595 438
596 438
597 438
598 438
599 438
600 438
601 438
602 438
603 438
604 438
605 438
606 438
607 438
608 438
609 438
610 438
611 438
612 438
613 438
614 438
615 438
616 438
617 438
574 439
575 439
576 439
577 439
578 439
579 439
580 439
581 439
582 439
583 439
584 439
585 439
586 439
587 439
588 439
589 439
590 439
591 439
592 439
593 439
594 439
595 439
596 439
597 439
598 439
599 439
600 439
601 439
602 439
603 439
604 439
605 439
606 439
607 439
608 439
609 439
610 439
611 439
612 439
613 439
614 439
615 439
616 439
617 439
574 440
575 440
576 440
577 440
578 440
579 440
580 440
581 440
582 440
583 440
584 440
585 440
586 440
587 440
588 440
589 440
590 440
591 440
592 440
593 440
594 440
595 440
596 440
597 440
598 440
599 440
600 440
601 440
602 440
603 440
604 440
605 440
606 440
607 440
608 440
609 440
610 440
611 440
612 440
613 440
614 440
615 440
616 440
617 440
574 441
575 441
576 441
577 441
578 441
579 441
580 441
581 441
582 441
583 441
584 441
585 441
586 441
587 441
588 441
589 441
590 441
591 441
592 441
593 441
594 441
595 441
596 441
597 441
598 441
599 441
600 441
601 441
602 441
603 441
604 441
605 441
606 441
607 441
608 441
609 441
610 441
611 441
612 441
613 441
614 441
615 441
616 441
617 441
574 442
575 442
576 442
577 442
578 442
579 442
580 442
581 442
582 442
583 442
584 442
585 442
586 442
587 442
588 442
589 442
590 442
591 442
592 442
593 442
594 442
595 442
596 442
597 442
598 442
599 442
600 442
601 442
602 442
603 442
604 442
605 442
606 442
607 442
608 442
609 442
610 442
611 442
612 442
613 442
614 442
615 442
616 442
617 442
574 443
575 443
576 443
577 443
578 443
579 443
580 443
581 443
582 443
583 443
584 443
585 443
586 443
587 443
588 443
589 443
590 443
591 443
592 443
593 443
594 443
595 443
596 443
597 443
598 443
599 443
600 443
601 443
602 443
603 443
604 443
605 443
606 443
607 443
608 443
609 443
610 443
611 443
612 443
613 443
614 443
615 443
616 443
617 443
574 444
575 444
576 444
577 444
578 444
579 444
580 444
581 444
582 444
583 444
584 444
585 444
586 444
587 444
588 444
589 444
590 444
591 444
592 444
593 444
594 444
595 444
596 444
597 444
598 444
599 444
600 444
601 444
602 444
603 444
604 444
605 444
606 444
607 444
608 444
609 444
610 444
611 444
612 444
613 444
614 444
615 444
616 444
617 444
574 445
575 445
576 445
577 445
578 445
579 445
580 445
581 445
582 445
583 445
584 445
585 445
586 445
587 445
588 445
589 445
590 445
591 445
592 445
593 445
594 445
595 445
596 445
597 445
598 445
599 445
600 445
601 445
602 445
603 445
604 445
605 445
606 445
607 445
608 445
609 445
610 445
611 445
612 445
613 445
614 445
615 445
616 445
617 445
574 446
575 446
576 446
577 446
578 446
579 446
580 446
581 446
582 446
583 446
584 446
585 446
586 446
587 446
588 446
589 446
590 446
591 446
592 446
593 446
594 446
595 446
596 446
597 446
598 446
599 446
600 446
601 446
602 446
603 446
604 446
605 446
606 446
607 446
608 446
609 446
610 446
611 446
612 446
613 446
614 446
615 446
616 446
617 446
574 447
575 447
576 447
577 447
578 447
579 447
580 447
581 447
582 447
583 447
584 447
585 447
586 447
587 447
588 447
589 447
590 447
591 447
592 447
593 447
594 447
595 447
596 447
597 447
598 447
599 447
600 447
601 447
602 447
603 447
604 447
605 447
606 447
607 447
608 447
609 447
610 447
611 447
612 447
613 447
614 447
615 447
616 447
617 447
574 448
575 448
576 448
577 448
578 448
579 448
580 448
581 448
582 448
583 448
584 448
585 448
586 448
587 448
588 448
589 448
590 448
591 448
592 448
593 448
594 448
595 448
596 448
597 448
598 448
599 448
600 448
601 448
602 448
603 448
604 448
605 448
606 448
607 448
608 448
609 448
610 448
611 448
612 448
613 448
614 448
615 448
616 448
617 448
574 449
575 449
576 449
577 449
578 449
579 449
580 449
581 449
582 449
583 449
584 449
585 449
586 449
587 449
588 449
589 449
590 449
591 449
592 449
593 449
594 449
595 449
596 449
597 449
598 449
599 449
600 449
601 449
602 449
603 449
604 449
605 449
606 449
607 449
608 449
609 449
610 449
611 449
612 449
613 449
614 449
615 449
616 449
617 449
574 450
575 450
576 450
577 450
578 450
579 450
580 450
581 450
582 450
583 450
584 450
585 450
586 450
587 450
588 450
589 450
590 450
591 450
592 450
593 450
594 450
595 450
596 450
597 450
598 450
599 450
600 450
601 450
602 450
603 450
604 450
605 450
606 450
607 450
608 450
609 450
610 450
611 450
612 450
613 450
614 450
615 450
616 450
617 450
574 451
575 451
576 451
577 451
578 451
579 451
580 451
581 451
582 451
583 451
584 451
585 451
586 451
587 451
588 451
589 451
590 451
591 451
592 451
593 451
594 451
595 451
596 451
597 451
598 451
599 451
600 451
601 451
602 451
603 451
604 451
605 451
606 451
607 451
608 451
609 451
610 451
611 451
612 451
613 451
614 451
615 451
616 451
617 451
574 452
575 452
576 452
577 452
578 452
579 452
580 452
581 452
582 452
583 452
584 452
585 452
586 452
587 452
588 452
589 452
590 452
591 452
592 452
593 452
594 452
595 452
596 452
597 452
598 452
599 452
600 452
601 452
602 452
603 452
604 452
605 452
606 452
607 452
608 452
609 452
610 452
611 452
612 452
613 452
614 452
615 452
616 452
617 452
574 453
575 453
576 453
577 453
578 453
579 453
580 453
581 453
582 453
583 453
584 453
585 453
586 453
587 453
588 453
589 453
590 453
591 453
592 453
593 453
594 453
595 453
596 453
597 453
598 453
599 453
600 453
601 453
602 453
603 453
604 453
605 453
606 453
607 453
608 453
609 453
610 453
611 453
612 453
613 453
614 453
615 453
616 453
617 453
694 498
695 498
696 498
697 498
698 498
699 498
700 498
701 498
702 498
703 498
704 498
705 498
706 498
707 498
708 498
709 498
710 498
711 498
712 498
713 498
714 498
715 498
716 498
717 498
718 498
719 498
720 498
721 498
722 498
723 498
724 498
725 498
726 498
727 498
728 498
729 498
730 498
731 498
732 498
733 498
734 498
735 498
736 498
737 498
694 499
695 499
696 499
697 499
698 499
699 499
700 499
701 499
702 499
703 499
704 499
705 499
706 499
707 499
708 499
709 499
710 499
711 499
712 499
713 499
714 499
715 499
716 499
717 499
718 499
719 499
720 499
721 499
722 499
723 499
724 499
725 499
726 499
727 499
728 499
729 499
730 499
731 499
732 499
733 499
734 499
735 499
736 499
737 499
694 500
695 500
696 500
697 500
698 500
699 500
700 500
701 500
702 500
703 500
704 500
705 500
706 500
707 500
708 500
709 500
710 500
711 500
712 500
713 500
714 500
715 500
716 500
717 500
718 500
719 500
720 500
721 500
722 500
723 500
724 500
725 500
726 500
727 500
728 500
729 500
730 500
731 500
732 500
733 500
734 500
735 500
736 500
737 500
694 501
695 501
696 501
697 501
698 501
699 501
700 501
701 501
702 501
703 501
704 501
705 501
706 501
707 501
708 501
709 501
710 501
711 501
712 501
713 501
714 501
715 501
716 501
717 501
718 501
719 501
720 501
721 501
722 501
723 501
724 501
725 501
726 501
727 501
728 501
729 501
730 501
731 501
732 501
733 501
734 501
735 501
736 501
737 501
694 502
695 502
696 502
697 502
698 502
699 502
700 502
701 502
702 502
703 502
704 502
705 502
706 502
707 502
708 502
709 502
710 502
711 502
712 502
713 502
714 502
715 502
716 502
717 502
718 502
719 502
720 502
721 502
722 502
723 502
724 502
725 502
726 502
727 502
728 502
729 502
730 502
731 502
732 502
733 502
734 502
735 502
736 502
737 502
694 503
695 503
696 503
697 503
698 503
699 503
700 503
701 503
702 503
703 503
704 503
705 503
706 503
707 503
708 503
709 503
710 503
711 503
712 503
713 503
714 503
715 503
716 503
717 503
718 503
719 503
720 503
721 503
722 503
723 503
724 503
725 503
726 503
727 503
728 503
729 503
730 503
731 503
732 503
733 503
734 503
735 503
736 503
737 503
694 504
695 504
696 504
697 504
698 504
699 504
700 504
701 504
702 504
703 504
704 504
705 504
706 504
707 504
708 504
709 504
710 504
711 504
712 504
713 504
714 504
715 504
716 504
717 504
718 504
719 504
720 504
721 504
722 504
723 504
724 504
725 504
726 504
727 504
728 504
729 504
730 504
731 504
732 504
733 504
734 504
735 504
736 504
737 504
694 505
695 505
696 505
697 505
698 505
699 505
700 505
701 505
702 505
703 505
704 505
705 505
706 505
707 505
708 505
709 505
710 505
711 505
712 505
713 505
714 505
715 505
716 505
717 505
718 505
719 505
720 505
721 505
722 505
723 505
724 505
725 505
726 505
727 505
728 505
729 505
730 505
731 505
732 505
733 505
734 505
735 505
736 505
737 505
694 506
695 506
696 506
697 506
698 506
699 506
700 506
701 506
702 506
703 506
704 506
705 506
706 506
707 506
708 506
709 506
710 506
711 506
712 506
713 506
714 506
715 506
716 506
717 506
718 506
719 506
720 506
721 506
722 506
723 506
724 506
725 506
726 506
727 506
728 506
729 506
730 506
731 506
732 506
733 506
734 506
735 506
736 506
737 506
694 507
695 507
696 507
697 507
698 507
699 507
700 507
701 507
702 507
703 507
704 507
705 507
706 507
707 507
708 507
709 507
710 507
711 507
712 507
713 507
714 507
715 507
716 507
717 507
718 507
719 507
720 507
721 507
722 507
723 507
724 507
725 507
726 507
727 507
728 507
729 507
730 507
731 507
732 507
733 507
734 507
735 507
736 507
737 507
694 508
695 508
696 508
697 508
698 508
699 508
700 508
701 508
702 508
703 508
704 508
705 508
706 508
707 508
708 508
709 508
710 508
711 508
712 508
713 508
714 508
715 508
716 508
717 508
718 508
719 508
720 508
721 508
722 508
723 508
724 508
725 508
726 508
727 508
728 508
729 508
730 508
731 508
732 508
733 508
734 508
735 508
736 508
737 508
694 509
695 509
696 509
697 509
698 509
699 509
700 509
701 509
702 509
703 509
704 509
705 509
706 509
707 509
708 509
709 509
710 509
711 509
712 509
713 509
714 509
715 509
716 509
717 509
718 509
719 509
720 509
721 509
722 509
723 509
724 509
725 509
726 509
727 509
728 509
729 509
730 509
731 509
732 509
733 509
734 509
735 509
736 509
737 509
694 510
695 510
696 510
697 510
698 510
699 510
700 510
701 510
702 510
703 510
704 510
705 510
706 510
707 510
708 510
709 510
710 510
711 510
712 510
713 510
714 510
715 510
716 510
717 510
718 510
719 510
720 510
721 510
722 510
723 510
724 510
725 510
726 510
727 510
728 510
729 510
730 510
731 510
732 510
733 510
734 510
735 510
736 510
737 510
694 511
695 511
696 511
697 511
698 511
699 511
700 511
701 511
702 511
703 511
704 511
705 511
706 511
707 511
708 511
709 511
710 511
711 511
712 511
713 511
714 511
715 511
716 511
717 511
718 511
719 511
720 511
721 511
722 511
723 511
724 511
725 511
726 511
727 511
728 511
729 511
730 511
731 511
732 511
733 511
734 511
735 511
736 511
737 511
694 512
695 512
696 512
697 512
698 512
699 512
700 512
701 512
702 512
703 512
704 512
705 512
706 512
707 512
708 512
709 512
710 512
711 512
712 512
713 512
714 512
715 512
716 512
717 512
718 512
719 512
720 512
721 512
722 512
723 512
724 512
725 512
726 512
727 512
728 512
729 512
730 512
731 512
732 512
733 512
734 512
735 512
736 512
737 512
694 513
695 513
696 513
697 513
698 513
699 513
700 513
701 513
702 513
703 513
704 513
705 513
706 513
707 513
708 513
709 513
710 513
711 513
712 513
713 513
714 513
715 513
716 513
717 513
718 513
719 513
720 513
721 513
722 513
723 513
724 513
725 513
726 513
727 513
728 513
729 513
730 513
731 513
732 513
733 513
734 513
735 513
736 513
737 513
694 514
695 514
696 514
697 514
698 514
699 514
700 514
701 514
702 514
703 514
704 514
705 514
706 514
707 514
708 514
709 514
710 514
711 514
712 514
713 514
714 514
715 514
716 514
717 514
718 514
719 514
720 514
721 514
722 514
723 514
724 514
725 514
726 514
727 514
728 514
729 514
730 514
731 514
732 514
733 514
734 514
735 514
736 514
737 514
694 515
695 515
696 515
697 515
698 515
699 515
700 515
701 515
702 515
703 515
704 515
705 515
706 515
707 515
708 515
709 515
710 515
711 515
712 515
713 515
714 515
715 515
716 515
717 515
718 515
719 515
720 515
721 515
722 515
723 515
724 515
725 515
726 515
727 515
728 515
729 515
730 515
731 515
732 515
733 515
734 515
735 515
736 515
737 515
694 516
695 516
696 516
697 516
698 516
699 516
700 516
701 516
702 516
703 516
704 516
705 516
706 516
707 516
708 516
709 516
710 516
711 516
712 516
713 516
714 516
715 516
716 516
717 516
718 516
719 516
720 516
721 516
722 516
723 516
724 516
725 516
726 516
727 516
728 516
729 516
730 516
731 516
732 516
733 516
734 516
735 516
736 516
737 516
694 517
695 517
696 517
697 517
698 517
699 517
700 517
701 517
702 517
703 517
704 517
705 517
706 517
707 517
708 517
709 517
710 517
711 517
712 517
713 517
714 517
715 517
716 517
717 517
718 517
719 517
720 517
721 517
722 517
723 517
724 517
725 517
726 517
727 517
728 517
729 517
730 517
731 517
732 517
733 517
734 517
735 517
736 517
737 517
694 518
695 518
696 518
697 518
698 518
699 518
700 518
701 518
702 518
703 518
704 518
705 518
706 518
707 518
708 518
709 518
710 518
711 518
712 518
713 518
714 518
715 518
716 518
717 518
718 518
719 518
720 518
721 518
722 518
723 518
724 518
725 518
726 518
727 518
728 518
729 518
730 518
731 518
732 518
733 518
734 518
735 518
736 518
737 518
694 519
695 519
696 519
697 519
698 519
699 519
700 519
701 519
702 519
703 519
704 519
705 519
706 519
707 519
708 519
709 519
710 519
711 519
712 519
713 519
714 519
715 519
716 519
717 519
718 519
719 519
720 519
721 519
722 519
723 519
724 519
725 519
726 519
727 519
728 519
729 519
730 519
731 519
732 519
733 519
734 519
735 519
736 519
737 519
694 520
695 520
696 520
697 520
698 520
699 520
700 520
701 520
702 520
703 520
704 520
705 520
706 520
707 520
708 520
709 520
710 520
711 520
712 520
713 520
714 520
715 520
716 520
717 520
718 520
719 520
720 520
721 520
722 520
723 520
724 520
725 520
726 520
727 520
728 520
729 520
730 520
731 520
732 520
733 520
734 520
735 520
736 520
737 520
694 521
695 521
696 521
697 521
698 521
699 521
700 521
701 521
702 521
703 521
704 521
705 521
706 521
707 521
708 521
709 521
710 521
711 521
712 521
713 521
714 521
715 521
716 521
717 521
718 521
719 521
720 521
721 521
722 521
723 521
724 521
725 521
726 521
727 521
728 521
729 521
730 521
731 521
732 521
733 521
734 521
735 521
736 521
737 521
694 522
695 522
696 522
697 522
698 522
699 522
700 522
701 522
702 522
703 522
704 522
705 522
706 522
707 522
708 522
709 522
710 522
711 522
712 522
713 522
714 522
715 522
716 522
717 522
718 522
719 522
720 522
721 522
722 522
723 522
724 522
725 522
726 522
727 522
728 522
729 522
730 522
731 522
732 522
733 522
734 522
735 522
736 522
737 522
694 523
695 523
696 523
697 523
698 523
699 523
700 523
701 523
702 523
703 523
704 523
705 523
706 523
707 523
708 523
709 523
710 523
711 523
712 523
713 523
714 523
715 523
716 523
717 523
718 523
719 523
720 523
721 523
722 523
723 523
724 523
725 523
726 523
727 523
728 523
729 523
730 523
731 523
732 523
733 523
734 523
735 523
736 523
737 523
694 524
695 524
696 524
697 524
698 524
699 524
700 524
701 524
702 524
703 524
704 524
705 524
706 524
707 524
708 524
709 524
710 524
711 524
712 524
713 524
714 524
715 524
716 524
717 524
718 524
719 524
720 524
721 524
722 524
723 524
724 524
725 524
726 524
727 524
728 524
729 524
730 524
731 524
732 524
733 524
734 524
735 524
736 524
737 524
694 525
695 525
696 525
697 525
698 525
699 525
700 525
701 525
702 525
703 525
704 525
705 525
706 525
707 525
708 525
709 525
710 525
711 525
712 525
713 525
714 525
715 525
716 525
717 525
718 525
719 525
720 525
721 525
722 525
723 525
724 525
725 525
726 525
727 525
728 525
729 525
730 525
731 525
732 525
733 525
734 525
735 525
736 525
737 525
694 526
695 526
696 526
697 526
698 526
699 526
700 526
701 526
702 526
703 526
704 526
705 526
706 526
707 526
708 526
709 526
710 526
711 526
712 526
713 526
714 526
715 526
716 526
717 526
718 526
719 526
720 526
721 526
722 526
723 526
724 526
725 526
726 526
727 526
728 526
729 526
730 526
731 526
732 526
733 526
734 526
735 526
736 526
737 526
694 527
695 527
696 527
697 527
698 527
699 527
700 527
701 527
702 527
703 527
704 527
705 527
706 527
707 527
708 527
709 527
710 527
711 527
712 527
713 527
714 527
715 527
716 527
717 527
718 527
719 527
720 527
721 527
722 527
723 527
724 527
725 527
726 527
727 527
728 527
729 527
730 527
731 527
732 527
733 527
734 527
735 527
736 527
737 527
694 528
695 528
696 528
697 528
698 528
699 528
700 528
701 528
702 528
703 528
704 528
705 528
706 528
707 528
708 528
709 528
710 528
711 528
712 528
713 528
714 528
715 528
716 528
717 528
718 528
719 528
720 528
721 528
722 528
723 528
724 528
725 528
726 528
727 528
728 528
729 528
730 528
731 528
732 528
733 528
734 528
735 528
736 528
737 528
694 529
695 529
696 529
697 529
698 529
699 529
700 529
701 529
702 529
703 529
704 529
705 529
706 529
707 529
708 529
709 529
710 529
711 529
712 529
713 529
714 529
715 529
716 529
717 529
718 529
719 529
720 529
721 529
722 529
723 529
724 529
725 529
726 529
727 529
728 529
729 529
730 529
731 529
732 529
733 529
734 529
735 529
736 529
737 529
694 530
695 530
696 530
697 530
698 530
699 530
700 530
701 530
702 530
703 530
704 530
705 530
706 530
707 530
708 530
709 530
710 530
711 530
712 530
713 530
714 530
715 530
716 530
717 530
718 530
719 530
720 530
721 530
722 530
723 530
724 530
725 530
726 530
727 530
728 530
729 530
730 530
731 530
732 530
733 530
734 530
735 530
736 530
737 530
694 531
695 531
696 531
697 531
698 531
699 531
700 531
701 531
702 531
703 531
704 531
705 531
706 531
707 531
708 531
709 531
710 531
711 531
712 531
713 531
714 531
715 531
716 531
717 531
718 531
719 531
720 531
721 531
722 531
723 531
724 531
725 531
726 531
727 531
728 531
729 531
730 531
731 531
732 531
733 531
734 531
735 531
736 531
737 531
694 532
695 532
696 532
697 532
698 532
699 532
700 532
701 532
702 532
703 532
704 532
705 532
706 532
707 532
708 532
709 532
710 532
711 532
712 532
713 532
714 532
715 532
716 532
717 532
718 532
719 532
720 532
721 532
722 532
723 532
724 532
725 532
726 532
727 532
728 532
729 532
730 532
731 532
732 532
733 532
734 532
735 532
736 532
737 532
694 533
695 533
696 533
697 533
698 533
699 533
700 533
701 533
702 533
703 533
704 533
705 533
706 533
707 533
708 533
709 533
710 533
711 533
712 533
713 533
714 533
715 533
716 533
717 533
718 533
719 533
720 533
721 533
722 533
723 533
724 533
725 533
726 533
727 533
728 533
729 533
730 533
731 533
732 533
733 533
734 533
735 533
736 533
737 533
694 534
695 534
696 534
697 534
698 534
699 534
700 534
701 534
702 534
703 534
704 534
705 534
706 534
707 534
708 534
709 534
710 534
711 534
712 534
713 534
714 534
715 534
716 534
717 534
718 534
719 534
720 534
721 534
722 534
723 534
724 534
725 534
726 534
727 534
728 534
729 534
730 534
731 534
732 534
733 534
734 534
735 534
736 534
737 534
814 579
815 579
816 579
817 579
818 579
819 579
820 579
821 579
822 579
823 579
824 579
825 579
826 579
827 579
828 579
829 579
830 579
831 579
832 579
833 579
834 579
835 579
836 579
837 579
838 579
839 579
840 579
841 579
842 579
843 579
844 579
845 579
846 579
847 579
848 579
849 579
850 579
851 579
852 579
853 579
854 579
855 579
856 579
857 579
814 580
815 580
816 580
817 580
818 580
819 580
820 580
821 580
822 580
823 580
824 580
825 580
826 580
827 580
828 580
829 580
830 580
831 580
832 580
833 580
834 580
835 580
836 580
837 580
838 580
839 580
840 580
841 580
842 580
843 580
844 580
845 580
846 580
847 580
848 580
849 580
850 580
851 580
852 580
853 580
854 580
855 580
856 580
857 580
814 581
815 581
816 581
817 581
818 581
819 581
820 581
821 581
822 581
823 581
824 581
825 581
826 581
827 581
828 581
829 581
830 581
831 581
832 581
833 581
834 581
835 581
836 581
837 581
838 581
839 581
840 581
841 581
842 581
843 581
844 581
845 581
846 581
847 581
848 581
849 581
850 581
851 581
852 581
853 581
854 581
855 581
856 581
857 581
814 582
815 582
816 582
817 582
818 582
819 582
820 582
821 582
822 582
823 582
824 582
825 582
826 582
827 582
828 582
829 582
830 582
831 582
832 582
833 582
834 582
835 582
836 582
837 582
838 582
839 582
840 582
841 582
842 582
843 582
844 582
845 582
846 582
847 582
848 582
849 582
850 582
851 582
852 582
853 582
854 582
855 582
856 582
857 582
814 583
815 583
816 583
817 583
818 583
819 583
820 583
821 583
822 583
823 583
824 583
825 583
826 583
827 583
828 583
829 583
830 583
831 583
832 583
833 583
834 583
835 583
836 583
837 583
838 583
839 583
840 583
841 583
842 583
843 583
844 583
845 583
846 583
847 583
848 583
849 583
850 583
851 583
852 583
853 583
854 583
855 583
856 583
857 583
814 584
815 584
816 584
817 584
818 584
819 584
820 584
821 584
822 584
823 584
824 584
825 584
826 584
827 584
828 584
829 584
830 584
831 584
832 584
833 584
834 584
835 584
836 584
837 584
838 584
839 584
840 584
841 584
842 584
843 584
844 584
845 584
846 584
847 584
848 584
849 584
850 584
851 584
852 584
853 584
854 584
855 584
856 584
857 584
814 585
815 585
816 585
817 585
818 585
819 585
820 585
821 585
822 585
823 585
824 585
825 585
826 585
827 585
828 585
829 585
830 585
831 585
832 585
833 585
834 585
835 585
836 585
837 585
838 585
839 585
840 585
841 585
842 585
843 585
844 585
845 585
846 585
847 585
848 585
849 585
850 585
851 585
852 585
853 585
854 585
855 585
856 585
857 585
814 586
815 586
816 586
817 586
818 586
819 586
820 586
821 586
822 586
823 586
824 586
825 586
826 586
827 586
828 586
829 586
830 586
831 586
832 586
833 586
834 586
835 586
836 586
837 586
838 586
839 586
840 586
841 586
842 586
843 586
844 586
845 586
846 586
847 586
848 586
849 586
850 586
851 586
852 586
853 586
854 586
855 586
856 586
857 586
814 587
815 587
816 587
817 587
818 587
819 587
820 587
821 587
822 587
823 587
824 587
825 587
826 587
827 587
828 587
829 587
830 587
831 587
832 587
833 587
834 587
835 587
836 587
837 587
838 587
839 587
840 587
841 587
842 587
843 587
844 587
845 587
846 587
847 587
848 587
849 587
850 587
851 587
852 587
853 587
854 587
855 587
856 587
857 587
814 588
815 588
816 588
817 588
818 588
819 588
820 588
821 588
822 588
823 588
824 588
825 588
826 588
827 588
828 588
829 588
830 588
831 588
832 588
833 588
834 588
835 588
836 588
837 588
838 588
839 588
840 588
841 588
842 588
843 588
844 588
845 588
846 588
847 588
848 588
849 588
850 588
851 588
852 588
853 588
854 588
855 588
856 588
857 588
814 589
815 589
816 589
817 589
818 589
819 589
820 589
821 589
822 589
823 589
824 589
825 589
826 589
827 589
828 589
829 589
830 589
831 589
832 589
833 589
834 589
835 589
836 589
837 589
838 589
839 589
840 589
841 589
842 589
843 589
844 589
845 589
846 589
847 589
848 589
849 589
850 589
851 589
852 589
853 589
854 589
855 589
856 589
857 589
814 590
815 590
816 590
817 590
818 590
819 590
820 590
821 590
822 590
823 590
824 590
825 590
826 590
827 590
828 590
829 590
830 590
831 590
832 590
833 590
834 590
835 590
836 590
837 590
838 590
839 590
840 590
841 590
842 590
843 590
844 590
845 590
846 590
847 590
848 590
849 590
850 590
851 590
852 590
853 590
854 590
855 590
856 590
857 590
814 591
815 591
816 591
817 591
818 591
819 591
820 591
821 591
822 591
823 591
824 591
825 591
826 591
827 591
828 591
829 591
830 591
831 591
832 591
833 591
834 591
835 591
836 591
837 591
838 591
839 591
840 591
841 591
842 591
843 591
844 591
845 591
846 591
847 591
848 591
849 591
850 591
851 591
852 591
853 591
854 591
855 591
856 591
857 591
814 592
815 592
816 592
817 592
818 592
819 592
820 592
821 592
822 592
823 592
824 592
825 592
826 592
827 592
828 592
829 592
830 592
831 592
832 592
833 592
834 592
835 592
836 592
837 592
838 592
839 592
840 592
841 592
842 592
843 592
844 592
845 592
846 592
847 592
848 592
849 592
850 592
851 592
852 592
853 592
854 592
855 592
856 592
857 592
814 593
815 593
816 593
817 593
818 593
819 593
820 593
821 593
822 593
823 593
824 593
825 593
826 593
827 593
828 593
829 593
830 593
831 593
832 593
833 593
834 593
835 593
836 593
837 593
838 593
839 593
840 593
841 593
842 593
843 593
844 593
845 593
846 593
847 593
848 593
849 593
850 593
851 593
852 593
853 593
854 593
855 593
856 593
857 593
814 594
815 594
816 594
817 594
818 594
819 594
820 594
821 594
822 594
823 594
824 594
825 594
826 594
827 594
828 594
829 594
830 594
831 594
832 594
833 594
834 594
835 594
836 594
837 594
838 594
839 594
840 594
841 594
842 594
843 594
844 594
845 594
846 594
847 594
848 594
849 594
850 594
851 594
852 594
853 594
854 594
855 594
856 594
857 594
814 595
815 595
816 595
817 595
818 595
819 595
820 595
821 595
822 595
823 595
824 595
825 595
826 595
827 595
828 595
829 595
830 595
831 595
832 595
833 595
834 595
835 595
836 595
837 595
838 595
839 595
840 595
841 595
842 595
843 595
844 595
845 595
846 595
847 595
848 595
849 595
850 595
851 595
852 595
853 595
854 595
855 595
856 595
857 595
814 596
815 596
816 596
817 596
818 596
819 596
820 596
821 596
822 596
823 596
824 596
825 596
826 596
827 596
828 596
829 596
830 596
831 596
832 596
833 596
834 596
835 596
836 596
837 596
838 596
839 596
840 596
841 596
842 596
843 596
844 596
845 596
846 596
847 596
848 596
849 596
850 596
851 596
852 596
853 596
854 596
855 596
856 596
857 596
814 597
815 597
816 597
817 597
818 597
819 597
820 597
821 597
822 597
823 597
824 597
825 597
826 597
827 597
828 597
829 597
830 597
831 597
832 597
833 597
834 597
835 597
836 597
837 597
838 597
839 597
840 597
841 597
842 597
843 597
844 597
845 597
846 597
847 597
848 597
849 597
850 597
851 597
852 597
853 597
854 597
855 597
856 597
857 597
814 598
815 598
816 598
817 598
818 598
819 598
820 598
821 598
822 598
823 598
824 598
825 598
826 598
827 598
828 598
829 598
830 598
831 598
832 598
833 598
834 598
835 598
836 598
837 598
838 598
839 598
840 598
841 598
842 598
843 598
844 598
845 598
846 598
847 598
848 598
849 598
850 598
851 598
852 598
853 598
854 598
855 598
856 598
857 598
814 599
815 599
816 599
817 599
818 599
819 599
820 599
821 599
822 599
823 599
824 599
825 599
826 599
827 599
828 599
829 599
830 599
831 599
832 599
833 599
834 599
835 599
836 599
837 599
838 599
839 599
840 599
841 599
842 599
843 599
844 599
845 599
846 599
847 599
848 599
849 599
850 599
851 599
852 599
853 599
854 599
855 599
856 599
857 599
814 600
815 600
816 600
817 600
818 600
819 600
820 600
821 600
822 600
823 600
824 600
825 600
826 600
827 600
828 600
829 600
830 600
831 600
832 600
833 600
834 600
835 600
836 600
837 600
838 600
839 600
840 600
841 600
842 600
843 600
844 600
845 600
846 600
847 600
848 600
849 600
850 600
851 600
852 600
853 600
854 600
855 600
856 600
857 600
814 601
815 601
816 601
817 601
818 601
819 601
820 601
821 601
822 601
823 601
824 601
825 601
826 601
827 601
828 601
829 601
830 601
831 601
832 601
833 601
834 601
835 601
836 601
837 601
838 601
839 601
840 601
841 601
842 601
843 601
844 601
845 601
846 601
847 601
848 601
849 601
850 601
851 601
852 601
853 601
854 601
855 601
856 601
857 601
814 602
815 602
816 602
817 602
818 602
819 602
820 602
821 602
822 602
823 602
824 602
825 602
826 602
827 602
828 602
829 602
830 602
831 602
832 602
833 602
834 602
835 602
836 602
837 602
838 602
839 602
840 602
841 602
842 602
843 602
844 602
845 602
846 602
847 602
848 602
849 602
850 602
851 602
852 602
853 602
854 602
855 602
856 602
857 602
814 603
815 603
816 603
817 603
818 603
819 603
820 603
821 603
822 603
823 603
824 603
825 603
826 603
827 603
828 603
829 603
830 603
831 603
832 603
833 603
834 603
835 603
836 603
837 603
838 603
839 603
840 603
841 603
842 603
843 603
844 603
845 603
846 603
847 603
848 603
849 603
850 603
851 603
852 603
853 603
854 603
855 603
856 603
857 603
814 604
815 604
816 604
817 604
818 604
819 604
820 604
821 604
822 604
823 604
824 604
825 604
826 604
827 604
828 604
829 604
830 604
831 604
832 604
833 604
834 604
835 604
836 604
837 604
838 604
839 604
840 604
841 604
842 604
843 604
844 604
845 604
846 604
847 604
848 604
849 604
850 604
851 604
852 604
853 604
854 604
855 604
856 604
857 604
814 605
815 605
816 605
817 605
818 605
819 605
820 605
821 605
822 605
823 605
824 605
825 605
826 605
827 605
828 605
829 605
830 605
831 605
832 605
833 605
834 605
835 605
836 605
837 605
838 605
839 605
840 605
841 605
842 605
843 605
844 605
845 605
846 605
847 605
848 605
849 605
850 605
851 605
852 605
853 605
854 605
855 605
856 605
857 605
814 606
815 606
816 606
817 606
818 606
819 606
820 606
821 606
822 606
823 606
824 606
825 606
826 606
827 606
828 606
829 606
830 606
831 606
832 606
833 606
834 606
835 606
836 606
837 606
838 606
839 606
840 606
841 606
842 606
843 606
844 606
845 606
846 606
847 606
848 606
849 606
850 606
851 606
852 606
853 606
854 606
855 606
856 606
857 606
814 607
815 607
816 607
817 607
818 607
819 607
820 607
821 607
822 607
823 607
824 607
825 607
826 607
827 607
828 607
829 607
830 607
831 607
832 607
833 607
834 607
835 607
836 607
837 607
838 607
839 607
840 607
841 607
842 607
843 607
844 607
845 607
846 607
847 607
848 607
849 607
850 607
851 607
852 607
853 607
854 607
855 607
856 607
857 607
814 608
815 608
816 608
817 608
818 608
819 608
820 608
821 608
822 608
823 608
824 608
825 608
826 608
827 608
828 608
829 608
830 608
831 608
832 608
833 608
834 608
835 608
836 608
837 608
838 608
839 608
840 608
841 608
842 608
843 608
844 608
845 608
846 608
847 608
848 608
849 608
850 608
851 608
852 608
853 608
854 608
855 608
856 608
857 608
814 609
815 609
816 609
817 609
818 609
819 609
820 609
821 609
822 609
823 609
824 609
825 609
826 609
827 609
828 609
829 609
830 609
831 609
832 609
833 609
834 609
835 609
836 609
837 609
838 609
839 609
840 609
841 609
842 609
843 609
844 609
845 609
846 609
847 609
848 609
849 609
850 609
851 609
852 609
853 609
854 609
855 609
856 609
857 609
814 610
815 610
816 610
817 610
818 610
819 610
820 610
821 610
822 610
823 610
824 610
825 610
826 610
827 610
828 610
829 610
830 610
831 610
832 610
833 610
834 610
835 610
836 610
837 610
838 610
839 610
840 610
841 610
842 610
843 610
844 610
845 610
846 610
847 610
848 610
849 610
850 610
851 610
852 610
853 610
854 610
855 610
856 610
857 610
814 611
815 611
816 611
817 611
818 611
819 611
820 611
821 611
822 611
823 611
824 611
825 611
826 611
827 611
828 611
829 611
830 611
831 611
832 611
833 611
834 611
835 611
836 611
837 611
838 611
839 611
840 611
841 611
842 611
843 611
844 611
845 611
846 611
847 611
848 611
849 611
850 611
851 611
852 611
853 611
854 611
855 611
856 611
857 611
814 612
815 612
816 612
817 612
818 612
819 612
820 612
821 612
822 612
823 612
824 612
825 612
826 612
827 612
828 612
829 612
830 612
831 612
832 612
833 612
834 612
835 612
836 612
837 612
838 612
839 612
840 612
841 612
842 612
843 612
844 612
845 612
846 612
847 612
848 612
849 612
850 612
851 612
852 612
853 612
854 612
855 612
856 612
857 612
814 613
815 613
816 613
817 613
818 613
819 613
820 613
821 613
822 613
823 613
824 613
825 613
826 613
827 613
828 613
829 613
830 613
831 613
832 613
833 613
834 613
835 613
836 613
837 613
838 613
839 613
840 613
841 613
842 613
843 613
844 613
845 613
846 613
847 613
848 613
849 613
850 613
851 613
852 613
853 613
854 613
855 613
856 613
857 613
814 614
815 614
816 614
817 614
818 614
819 614
820 614
821 614
822 614
823 614
824 614
825 614
826 614
827 614
828 614
829 614
830 614
831 614
832 614
833 614
834 614
835 614
836 614
837 614
838 614
839 614
840 614
841 614
842 614
843 614
844 614
845 614
846 614
847 614
848 614
849 614
850 614
851 614
852 614
853 614
854 614
855 614
856 614
857 614
814 615
815 615
816 615
817 615
818 615
819 615
820 615
821 615
822 615
823 615
824 615
825 615
826 615
827 615
828 615
829 615
830 615
831 615
832 615
833 615
834 615
835 615
836 615
837 615
838 615
839 615
840 615
841 615
842 615
843 615
844 615
845 615
846 615
847 615
848 615
849 615
850 615
851 615
852 615
853 615
854 615
855 615
856 615
857 615
934 660
935 660
936 660
937 660
938 660
939 660
940 660
941 660
942 660
943 660
944 660
945 660
946 660
947 660
948 660
949 660
950 660
951 660
952 660
953 660
954 660
955 660
956 660
957 660
958 660
959 660
960 660
961 660
962 660
963 660
964 660
965 660
966 660
967 660
968 660
969 660
970 660
971 660
972 660
973 660
974 660
975 660
976 660
977 660
934 661
935 661
936 661
937 661
938 661
939 661
940 661
941 661
942 661
943 661
944 661
945 661
946 661
947 661
948 661
949 661
950 661
951 661
952 661
953 661
954 661
955 661
956 661
957 661
958 661
959 661
960 661
961 661
962 661
963 661
964 661
965 661
966 661
967 661
968 661
969 661
970 661
971 661
972 661
973 661
974 661
975 661
976 661
977 661
934 662
935 662
936 662
937 662
938 662
939 662
940 662
941 662
942 662
943 662
944 662
945 662
946 662
947 662
948 662
949 662
950 662
951 662
952 662
953 662
954 662
955 662
956 662
957 662
958 662
959 662
960 662
961 662
962 662
963 662
964 662
965 662
966 662
967 662
968 662
969 662
970 662
971 662
972 662
973 662
974 662
975 662
976 662
977 662
934 663
935 663
936 663
937 663
938 663
939 663
940 663
941 663
942 663
943 663
944 663
945 663
946 663
947 663
948 663
949 663
950 663
951 663
952 663
953 663
954 663
955 663
956 663
957 663
958 663
959 663
960 663
961 663
962 663
963 663
964 663
965 663
966 663
967 663
968 663
969 663
970 663
971 663
972 663
973 663
974 663
975 663
976 663
977 663
934 664
935 664
936 664
937 664
938 664
939 664
940 664
941 664
942 664
943 664
944 664
945 664
946 664
947 664
948 664
949 664
950 664
951 664
952 664
953 664
954 664
955 664
956 664
957 664
958 664
959 664
960 664
961 664
962 664
963 664
964 664
965 664
966 664
967 664
968 664
969 664
970 664
971 664
972 664
973 664
974 664
975 664
976 664
977 664
934 665
935 665
936 665
937 665
938 665
939 665
940 665
941 665
942 665
943 665
944 665
945 665
946 665
947 665
948 665
949 665
950 665
951 665
952 665
953 665
954 665
955 665
956 665
957 665
958 665
959 665
960 665
961 665
962 665
963 665
964 665
965 665
966 665
967 665
968 665
969 665
970 665
971 665
972 665
973 665
974 665
975 665
976 665
977 665
934 666
935 666
936 666
937 666
938 666
939 666
940 666
941 666
942 666
943 666
944 666
945 666
946 666
947 666
948 666
949 666
950 666
951 666
952 666
953 666
954 666
955 666
956 666
957 666
958 666
959 666
960 666
961 666
962 666
963 666
964 666
965 666
966 666
967 666
968 666
969 666
970 666
971 666
972 666
973 666
974 666
975 666
976 666
977 666
934 667
935 667
936 667
937 667
938 667
939 667
940 667
941 667
942 667
943 667
944 667
945 667
946 667
947 667
948 667
949 667
950 667
951 667
952 667
953 667
954 667
955 667
956 667
957 667
958 667
959 667
960 667
961 667
962 667
963 667
964 667
965 667
966 667
967 667
968 667
969 667
970 667
971 667
972 667
973 667
974 667
975 667
976 667
977 667
934 668
935 668
936 668
937 668
938 668
939 668
940 668
941 668
942 668
943 668
944 668
945 668
946 668
947 668
948 668
949 668
950 668
951 668
952 668
953 668
954 668
955 668
956 668
957 668
958 668
959 668
960 668
961 668
962 668
963 668
964 668
965 668
966 668
967 668
968 668
969 668
970 668
971 668
972 668
973 668
974 668
975 668
976 668
977 668
934 669
935 669
936 669
937 669
938 669
939 669
940 669
941 669
942 669
943 669
944 669
945 669
946 669
947 669
948 669
949 669
950 669
951 669
952 669
953 669
954 669
955 669
956 669
957 669
958 669
959 669
960 669
961 669
962 669
963 669
964 669
965 669
966 669
967 669
968 669
969 669
970 669
971 669
972 669
973 669
974 669
975 669
976 669
977 669
934 670
935 670
936 670
937 670
938 670
939 670
940 670
941 670
942 670
943 670
944 670
945 670
946 670
947 670
948 670
949 670
950 670
951 670
952 670
953 670
954 670
955 670
956 670
957 670
958 670
959 670
960 670
961 670
962 670
963 670
964 670
965 670
966 670
967 670
968 670
969 670
970 670
971 670
972 670
973 670
974 670
975 670
976 670
977 670
934 671
935 671
936 671
937 671
938 671
939 671
940 671
941 671
942 671
943 671
944 671
945 671
946 671
947 671
948 671
949 671
950 671
951 671
952 671
953 671
954 671
955 671
956 671
957 671
958 671
959 671
960 671
961 671
962 671
963 671
964 671
965 671
966 671
967 671
968 671
969 671
970 671
971 671
972 671
973 671
974 671
975 671
976 671
977 671
934 672
935 672
936 672
937 672
938 672
939 672
940 672
941 672
942 672
943 672
944 672
945 672
946 672
947 672
948 672
949 672
950 672
951 672
952 672
953 672
954 672
955 672
956 672
957 672
958 672
959 672
960 672
961 672
962 672
963 672
964 672
965 672
966 672
967 672
968 672
969 672
970 672
971 672
972 672
973 672
974 672
975 672
976 672
977 672
934 673
935 673
936 673
937 673
938 673
939 673
940 673
941 673
942 673
943 673
944 673
945 673
946 673
947 673
948 673
949 673
950 673
951 673
952 673
953 673
954 673
955 673
956 673
957 673
958 673
959 673
960 673
961 673
962 673
963 673
964 673
965 673
966 673
967 673
968 673
969 673
970 673
971 673
972 673
973 673
974 673
975 673
976 673
977 673
934 674
935 674
936 674
937 674
938 674
939 674
940 674
941 674
942 674
943 674
944 674
945 674
946 674
947 674
948 674
949 674
950 674
951 674
952 674
953 674
954 674
955 674
956 674
957 674
958 674
959 674
960 674
961 674
962 674
963 674
964 674
965 674
966 674
967 674
968 674
969 674
970 674
971 674
972 674
973 674
974 674
975 674
976 674
977 674
934 675
935 675
936 675
937 675
938 675
939 675
940 675
941 675
942 675
943 675
944 675
945 675
946 675
947 675
948 675
949 675
950 675
951 675
952 675
953 675
954 675
955 675
956 675
957 675
958 675
959 675
960 675
961 675
962 675
963 675
964 675
965 675
966 675
967 675
968 675
969 675
970 675
971 675
972 675
973 675
974 675
975 675
976 675
977 675
934 676
935 676
936 676
937 676
938 676
939 676
940 676
941 676
942 676
943 676
944 676
945 676
946 676
947 676
948 676
949 676
950 676
951 676
952 676
953 676
954 676
955 676
956 676
957 676
958 676
959 676
960 676
961 676
962 676
963 676
964 676
965 676
966 676
967 676
968 676
969 676
970 676
971 676
972 676
973 676
974 676
975 676
976 676
977 676
934 677
935 677
936 677
937 677
938 677
939 677
940 677
941 677
942 677
943 677
944 677
945 677
946 677
947 677
948 677
949 677
950 677
951 677
952 677
953 677
954 677
955 677
956 677
957 677
958 677
959 677
960 677
961 677
962 677
963 677
964 677
965 677
966 677
967 677
968 677
969 677
970 677
971 677
972 677
973 677
974 677
975 677
976 677
977 677
934 678
935 678
936 678
937 678
938 678
939 678
940 678
941 678
942 678
943 678
944 678
945 678
946 678
947 678
948 678
949 678
950 678
951 678
952 678
953 678
954 678
955 678
956 678
957 678
958 678
959 678
960 678
961 678
962 678
963 678
964 678
965 678
966 678
967 678
968 678
969 678
970 678
971 678
972 678
973 678
974 678
975 678
976 678
977 678
934 679
935 679
936 679
937 679
938 679
939 679
940 679
941 679
942 679
943 679
944 679
945 679
946 679
947 679
948 679
949 679
950 679
951 679
952 679
953 679
954 679
955 679
956 679
957 679
958 679
959 679
960 679
961 679
962 679
963 679
964 679
965 679
966 679
967 679
968 679
969 679
970 679
971 679
972 679
973 679
974 679
975 679
976 679
977 679
934 680
935 680
936 680
937 680
938 680
939 680
940 680
941 680
942 680
943 680
944 680
945 680
946 680
947 680
948 680
949 680
950 680
951 680
952 680
953 680
954 680
955 680
956 680
957 680
958 680
959 680
960 680
961 680
962 680
963 680
964 680
965 680
966 680
967 680
968 680
969 680
970 680
971 680
972 680
973 680
974 680
975 680
976 680
977 680
934 681
935 681
936 681
937 681
938 681
939 681
940 681
941 681
942 681
943 681
944 681
945 681
946 681
947 681
948 681
949 681
950 681
951 681
952 681
953 681
954 681
955 681
956 681
957 681
958 681
959 681
960 681
961 681
962 681
963 681
964 681
965 681
966 681
967 681
968 681
969 681
970 681
971 681
972 681
973 681
974 681
975 681
976 681
977 681
934 682
935 682
936 682
937 682
938 682
939 682
940 682
941 682
942 682
943 682
944 682
945 682
946 682
947 682
948 682
949 682
950 682
951 682
952 682
953 682
954 682
955 682
956 682
957 682
958 682
959 682
960 682
961 682
962 682
963 682
964 682
965 682
966 682
967 682
968 682
969 682
970 682
971 682
972 682
973 682
974 682
975 682
976 682
977 682
934 683
935 683
936 683
937 683
938 683
939 683
940 683
941 683
942 683
943 683
944 683
945 683
946 683
947 683
948 683
949 683
950 683
951 683
952 683
953 683
954 683
955 683
956 683
957 683
958 683
959 683
960 683
961 683
962 683
963 683
964 683
965 683
966 683
967 683
968 683
969 683
970 683
971 683
972 683
973 683
974 683
975 683
976 683
977 683
934 684
935 684
936 684
937 684
938 684
939 684
940 684
941 684
942 684
943 684
944 684
945 684
946 684
947 684
948 684
949 684
950 684
951 684
952 684
953 684
954 684
955 684
956 684
957 684
958 684
959 684
960 684
961 684
962 684
963 684
964 684
965 684
966 684
967 684
968 684
969 684
970 684
971 684
972 684
973 684
974 684
975 684
976 684
977 684
934 685
935 685
936 685
937 685
938 685
939 685
940 685
941 685
942 685
943 685
944 685
945 685
946 685
947 685
948 685
949 685
950 685
951 685
952 685
953 685
954 685
955 685
956 685
957 685
958 685
959 685
960 685
961 685
962 685
963 685
964 685
965 685
966 685
967 685
968 685
969 685
970 685
971 685
972 685
973 685
974 685
975 685
976 685
977 685
934 686
935 686
936 686
937 686
938 686
939 686
940 686
941 686
942 686
943 686
944 686
945 686
946 686
947 686
948 686
949 686
950 686
951 686
952 686
953 686
954 686
955 686
956 686
957 686
958 686
959 686
960 686
961 686
962 686
963 686
964 686
965 686
966 686
967 686
968 686
969 686
970 686
971 686
972 686
973 686
974 686
975 686
976 686
977 686
934 687
935 687
936 687
937 687
938 687
939 687
940 687
941 687
942 687
943 687
944 687
945 687
946 687
947 687
948 687
949 687
950 687
951 687
952 687
953 687
954 687
955 687
956 687
957 687
958 687
959 687
960 687
961 687
962 687
963 687
964 687
965 687
966 687
967 687
968 687
969 687
970 687
971 687
972 687
973 687
974 687
975 687
976 687
977 687
934 688
935 688
936 688
937 688
938 688
939 688
940 688
941 688
942 688
943 688
944 688
945 688
946 688
947 688
948 688
949 688
950 688
951 688
952 688
953 688
954 688
955 688
956 688
957 688
958 688
959 688
960 688
961 688
962 688
963 688
964 688
965 688
966 688
967 688
968 688
969 688
970 688
971 688
972 688
973 688
974 688
975 688
976 688
977 688
934 689
935 689
936 689
937 689
938 689
939 689
940 689
941 689
942 689
943 689
944 689
945 689
946 689
947 689
948 689
949 689
950 689
951 689
952 689
953 689
954 689
955 689
956 689
957 689
958 689
959 689
960 689
961 689
962 689
963 689
964 689
965 689
966 689
967 689
968 689
969 689
970 689
971 689
972 689
973 689
974 689
975 689
976 689
977 689
934 690
935 690
936 690
937 690
938 690
939 690
940 690
941 690
942 690
943 690
944 690
945 690
946 690
947 690
948 690
949 690
950 690
951 690
952 690
953 690
954 690
955 690
956 690
957 690
958 690
959 690
960 690
961 690
962 690
963 690
964 690
965 690
966 690
967 690
968 690
969 690
970 690
971 690
972 690
973 690
974 690
975 690
976 690
977 690
934 691
935 691
936 691
937 691
938 691
939 691
940 691
941 691
942 691
943 691
944 691
945 691
946 691
947 691
948 691
949 691
950 691
951 691
952 691
953 691
954 691
955 691
956 691
957 691
958 691
959 691
960 691
961 691
962 691
963 691
964 691
965 691
966 691
967 691
968 691
969 691
970 691
971 691
972 691
973 691
974 691
975 691
976 691
977 691
934 692
935 692
936 692
937 692
938 692
939 692
940 692
941 692
942 692
943 692
944 692
945 692
946 692
947 692
948 692
949 692
950 692
951 692
952 692
953 692
954 692
955 692
956 692
957 692
958 692
959 692
960 692
961 692
962 692
963 692
964 692
965 692
966 692
967 692
968 692
969 692
970 692
971 692
972 692
973 692
974 692
975 692
976 692
977 692
934 693
935 693
936 693
937 693
938 693
939 693
940 693
941 693
942 693
943 693
944 693
945 693
946 693
947 693
948 693
949 693
950 693
951 693
952 693
953 693
954 693
955 693
956 693
957 693
958 693
959 693
960 693
961 693
962 693
963 693
964 693
965 693
966 693
967 693
968 693
969 693
970 693
971 693
972 693
973 693
974 693
975 693
976 693
977 693
934 694
935 694
936 694
937 694
938 694
939 694
940 694
941 694
942 694
943 694
944 694
945 694
946 694
947 694
948 694
949 694
950 694
951 694
952 694
953 694
954 694
955 694
956 694
957 694
958 694
959 694
960 694
961 694
962 694
963 694
964 694
965 694
966 694
967 694
968 694
969 694
970 694
971 694
972 694
973 694
974 694
975 694
976 694
977 694
934 695
935 695
936 695
937 695
938 695
939 695
940 695
941 695
942 695
943 695
944 695
945 695
946 695
947 695
948 695
949 695
950 695
951 695
952 695
953 695
954 695
955 695
956 695
957 695
958 695
959 695
960 695
961 695
962 695
963 695
964 695
965 695
966 695
967 695
968 695
969 695
970 695
971 695
972 695
973 695
974 695
975 695
976 695
977 695
934 696
935 696
936 696
937 696
938 696
939 696
940 696
941 696
942 696
943 696
944 696
945 696
946 696
947 696
948 696
949 696
950 696
951 696
952 696
953 696
954 696
955 696
956 696
957 696
958 696
959 696
960 696
961 696
962 696
963 696
964 696
965 696
966 696
967 696
968 696
969 696
970 696
971 696
972 696
973 696
974 696
975 696
976 696
977 696
1054 741
1055 741
1056 741
1057 741
1058 741
1059 741
1060 741
1061 741
1062 741
1063 741
1064 741
1065 741
1066 741
1067 741
1068 741
1069 741
1070 741
1071 741
1072 741
1073 741
1074 741
1075 741
1076 741
1077 741
1078 741
1079 741
1080 741
1081 741
1082 741
1083 741
1084 741
1085 741
1086 741
1087 741
1088 741
1089 741
1090 741
1091 741
1092 741
1093 741
1094 741
1095 741
1096 741
1097 741
1054 742
1055 742
1056 742
1057 742
1058 742
1059 742
1060 742
1061 742
1062 742
1063 742
1064 742
1065 742
1066 742
1067 742
1068 742
1069 742
1070 742
1071 742
1072 742
1073 742
1074 742
1075 742
1076 742
1077 742
1078 742
1079 742
1080 742
1081 742
1082 742
1083 742
1084 742
1085 742
1086 742
1087 742
1088 742
1089 742
1090 742
1091 742
1092 742
1093 742
1094 742
1095 742
1096 742
1097 742
1054 743
1055 743
1056 743
1057 743
1058 743
1059 743
1060 743
1061 743
1062 743
1063 743
1064 743
1065 743
1066 743
1067 743
1068 743
1069 743
1070 743
1071 743
1072 743
1073 743
1074 743
1075 743
1076 743
1077 743
1078 743
1079 743
1080 743
1081 743
1082 743
1083 743
1084 743
1085 743
1086 743
1087 743
1088 743
1089 743
1090 743
1091 743
1092 743
1093 743
1094 743
1095 743
1096 743
1097 743
1054 744
1055 744
1056 744
1057 744
1058 744
1059 744
1060 744
1061 744
1062 744
1063 744
1064 744
1065 744
1066 744
1067 744
1068 744
1069 744
1070 744
1071 744
1072 744
1073 744
1074 744
1075 744
1076 744
1077 744
1078 744
1079 744
1080 744
1081 744
1082 744
1083 744
1084 744
1085 744
1086 744
1087 744
1088 744
1089 744
1090 744
1091 744
1092 744
1093 744
1094 744
1095 744
1096 744
1097 744
1054 745
1055 745
1056 745
1057 745
1058 745
1059 745
1060 745
1061 745
1062 745
1063 745
1064 745
1065 745
1066 745
1067 745
1068 745
1069 745
1070 745
1071 745
1072 745
1073 745
1074 745
1075 745
1076 745
1077 745
1078 745
1079 745
1080 745
1081 745
1082 745
1083 745
1084 745
1085 745
1086 745
1087 745
1088 745
1089 745
1090 745
1091 745
1092 745
1093 745
1094 745
1095 745
1096 745
1097 745
1054 746
1055 746
1056 746
1057 746
1058 746
1059 746
1060 746
1061 746
1062 746
1063 746
1064 746
1065 746
1066 746
1067 746
1068 746
1069 746
1070 746
1071 746
1072 746
1073 746
1074 746
1075 746
1076 746
1077 746
1078 746
1079 746
1080 746
1081 746
1082 746
1083 746
1084 746
1085 746
1086 746
1087 746
1088 746
1089 746
1090 746
1091 746
1092 746
1093 746
1094 746
1095 746
1096 746
1097 746
1054 747
1055 747
1056 747
1057 747
1058 747
1059 747
1060 747
1061 747
1062 747
1063 747
1064 747
1065 747
1066 747
1067 747
1068 747
1069 747
1070 747
1071 747
1072 747
1073 747
1074 747
1075 747
1076 747
1077 747
1078 747
1079 747
1080 747
1081 747
1082 747
1083 747
1084 747
1085 747
1086 747
1087 747
1088 747
1089 747
1090 747
1091 747
1092 747
1093 747
1094 747
1095 747
1096 747
1097 747
1054 748
1055 748
1056 748
1057 748
1058 748
1059 748
1060 748
1061 748
1062 748
1063 748
1064 748
1065 748
1066 748
1067 748
1068 748
1069 748
1070 748
1071 748
1072 748
1073 748
1074 748
1075 748
1076 748
1077 748
1078 748
1079 748
1080 748
1081 748
1082 748
1083 748
1084 748
1085 748
1086 748
1087 748
1088 748
1089 748
1090 748
1091 748
1092 748
1093 748
1094 748
1095 748
1096 748
1097 748
1054 749
1055 749
1056 749
1057 749
1058 749
1059 749
1060 749
1061 749
1062 749
1063 749
1064 749
1065 749
1066 749
1067 749
1068 749
1069 749
1070 749
1071 749
1072 749
1073 749
1074 749
1075 749
1076 749
1077 749
1078 749
1079 749
1080 749
1081 749
1082 749
1083 749
1084 749
1085 749
1086 749
1087 749
1088 749
1089 749
1090 749
1091 749
1092 749
1093 749
1094 749
1095 749
1096 749
1097 749
1054 750
1055 750
1056 750
1057 750
1058 750
1059 750
1060 750
1061 750
1062 750
1063 750
1064 750
1065 750
1066 750
1067 750
1068 750
1069 750
1070 750
1071 750
1072 750
1073 750
1074 750
1075 750
1076 750
1077 750
1078 750
1079 750
1080 750
1081 750
1082 750
1083 750
1084 750
1085 750
1086 750
1087 750
1088 750
1089 750
1090 750
1091 750
1092 750
1093 750
1094 750
1095 750
1096 750
1097 750
1054 751
1055 751
1056 751
1057 751
1058 751
1059 751
1060 751
1061 751
1062 751
1063 751
1064 751
1065 751
1066 751
1067 751
1068 751
1069 751
1070 751
1071 751
1072 751
1073 751
1074 751
1075 751
1076 751
1077 751
1078 751
1079 751
1080 751
1081 751
1082 751
1083 751
1084 751
1085 751
1086 751
1087 751
1088 751
1089 751
1090 751
1091 751
1092 751
1093 751
1094 751
1095 751
1096 751
1097 751
1054 752
1055 752
1056 752
1057 752
1058 752
1059 752
1060 752
1061 752
1062 752
1063 752
1064 752
1065 752
1066 752
1067 752
1068 752
1069 752
1070 752
1071 752
1072 752
1073 752
1074 752
1075 752
1076 752
1077 752
1078 752
1079 752
1080 752
1081 752
1082 752
1083 752
1084 752
1085 752
1086 752
1087 752
1088 752
1089 752
1090 752
1091 752
1092 752
1093 752
1094 752
1095 752
1096 752
1097 752
1054 753
1055 753
1056 753
1057 753
1058 753
1059 753
1060 753
1061 753
1062 753
1063 753
1064 753
1065 753
1066 753
1067 753
1068 753
1069 753
1070 753
1071 753
1072 753
1073 753
1074 753
1075 753
1076 753
1077 753
1078 753
1079 753
1080 753
1081 753
1082 753
1083 753
1084 753
1085 753
1086 753
1087 753
1088 753
1089 753
1090 753
1091 753
1092 753
1093 753
1094 753
1095 753
1096 753
1097 753
1054 754
1055 754
1056 754
1057 754
1058 754
1059 754
1060 754
1061 754
1062 754
1063 754
1064 754
1065 754
1066 754
1067 754
1068 754
1069 754
1070 754
1071 754
1072 754
1073 754
1074 754
1075 754
1076 754
1077 754
1078 754
1079 754
1080 754
1081 754
1082 754
1083 754
1084 754
1085 754
1086 754
1087 754
1088 754
1089 754
1090 754
1091 754
1092 754
1093 754
1094 754
1095 754
1096 754
1097 754
1054 755
1055 755
1056 755
1057 755
1058 755
1059 755
1060 755
1061 755
1062 755
1063 755
1064 755
1065 755
1066 755
1067 755
1068 755
1069 755
1070 755
1071 755
1072 755
1073 755
1074 755
1075 755
1076 755
1077 755
1078 755
1079 755
1080 755
1081 755
1082 755
1083 755
1084 755
1085 755
1086 755
1087 755
1088 755
1089 755
1090 755
1091 755
1092 755
1093 755
1094 755
1095 755
1096 755
1097 755
1054 756
1055 756
1056 756
1057 756
1058 756
1059 756
1060 756
1061 756
1062 756
1063 756
1064 756
1065 756
1066 756
1067 756
1068 756
1069 756
1070 756
1071 756
1072 756
1073 756
1074 756
1075 756
1076 756
1077 756
1078 756
1079 756
1080 756
1081 756
1082 756
1083 756
1084 756
1085 756
1086 756
1087 756
1088 756
1089 756
1090 756
1091 756
1092 756
1093 756
1094 756
1095 756
1096 756
1097 756
1054 757
1055 757
1056 757
1057 757
1058 757
1059 757
1060 757
1061 757
1062 757
1063 757
1064 757
1065 757
1066 757
1067 757
1068 757
1069 757
1070 757
1071 757
1072 757
1073 757
1074 757
1075 757
1076 757
1077 757
1078 757
1079 757
1080 757
1081 757
1082 757
1083 757
1084 757
1085 757
1086 757
1087 757
1088 757
1089 757
1090 757
1091 757
1092 757
1093 757
1094 757
1095 757
1096 757
1097 757
1054 758
1055 758
1056 758
1057 758
1058 758
1059 758
1060 758
1061 758
1062 758
1063 758
1064 758
1065 758
1066 758
1067 758
1068 758
1069 758
1070 758
1071 758
1072 758
1073 758
1074 758
1075 758
1076 758
1077 758
1078 758
1079 758
1080 758
1081 758
1082 758
1083 758
1084 758
1085 758
1086 758
1087 758
1088 758
1089 758
1090 758
1091 758
1092 758
1093 758
1094 758
1095 758
1096 758
1097 758
1054 759
1055 759
1056 759
1057 759
1058 759
1059 759
1060 759
1061 759
1062 759
1063 759
1064 759
1065 759
1066 759
1067 759
1068 759
1069 759
1070 759
1071 759
1072 759
1073 759
1074 759
1075 759
1076 759
1077 759
1078 759
1079 759
1080 759
1081 759
1082 759
1083 759
1084 759
1085 759
1086 759
1087 759
1088 759
1089 759
1090 759
1091 759
1092 759
1093 759
1094 759
1095 759
1096 759
1097 759
1054 760
1055 760
1056 760
1057 760
1058 760
1059 760
1060 760
1061 760
1062 760
1063 760
1064 760
1065 760
1066 760
1067 760
1068 760
1069 760
1070 760
1071 760
1072 760
1073 760
1074 760
1075 760
1076 760
1077 760
1078 760
1079 760
1080 760
1081 760
1082 760
1083 760
1084 760
1085 760
1086 760
1087 760
1088 760
1089 760
1090 760
1091 760
1092 760
1093 760
1094 760
1095 760
1096 760
1097 760
1054 761
1055 761
1056 761
1057 761
1058 761
1059 761
1060 761
1061 761
1062 761
1063 761
1064 761
1065 761
1066 761
1067 761
1068 761
1069 761
1070 761
1071 761
1072 761
1073 761
1074 761
1075 761
1076 761
1077 761
1078 761
1079 761
1080 761
1081 761
1082 761
1083 761
1084 761
1085 761
1086 761
1087 761
1088 761
1089 761
1090 761
1091 761
1092 761
1093 761
1094 761
1095 761
1096 761
1097 761
1054 762
1055 762
1056 762
1057 762
1058 762
1059 762
1060 762
1061 762
1062 762
1063 762
1064 762
1065 762
1066 762
1067 762
1068 762
1069 762
1070 762
1071 762
1072 762
1073 762
1074 762
1075 762
1076 762
1077 762
1078 762
1079 762
1080 762
1081 762
1082 762
1083 762
1084 762
1085 762
1086 762
1087 762
1088 762
1089 762
1090 762
1091 762
1092 762
1093 762
1094 762
1095 762
1096 762
1097 762
1054 763
1055 763
1056 763
1057 763
1058 763
1059 763
1060 763
1061 763
1062 763
1063 763
1064 763
1065 763
1066 763
1067 763
1068 763
1069 763
1070 763
1071 763
1072 763
1073 763
1074 763
1075 763
1076 763
1077 763
1078 763
1079 763
1080 763
1081 763
1082 763
1083 763
1084 763
1085 763
1086 763
1087 763
1088 763
1089 763
1090 763
1091 763
1092 763
1093 763
1094 763
1095 763
1096 763
1097 763
1054 764
1055 764
1056 764
1057 764
1058 764
1059 764
1060 764
1061 764
1062 764
1063 764
1064 764
1065 764
1066 764
1067 764
1068 764
1069 764
1070 764
1071 764
1072 764
1073 764
1074 764
1075 764
1076 764
1077 764
1078 764
1079 764
1080 764
1081 764
1082 764
1083 764
1084 764
1085 764
1086 764
1087 764
1088 764
1089 764
1090 764
1091 764
1092 764
1093 764
1094 764
1095 764
1096 764
1097 764
1054 765
1055 765
1056 765
1057 765
1058 765
1059 765
1060 765
1061 765
1062 765
1063 765
1064 765
1065 765
1066 765
1067 765
1068 765
1069 765
1070 765
1071 765
1072 765
1073 765
1074 765
1075 765
1076 765
1077 765
1078 765
1079 765
1080 765
1081 765
1082 765
1083 765
1084 765
1085 765
1086 765
1087 765
1088 765
1089 765
1090 765
1091 765
1092 765
1093 765
1094 765
1095 765
1096 765
1097 765
1054 766
1055 766
1056 766
1057 766
1058 766
1059 766
1060 766
1061 766
1062 766
1063 766
1064 766
1065 766
1066 766
1067 766
1068 766
1069 766
1070 766
1071 766
1072 766
1073 766
1074 766
1075 766
1076 766
1077 766
1078 766
1079 766
1080 766
1081 766
1082 766
1083 766
1084 766
1085 766
1086 766
1087 766
1088 766
1089 766
1090 766
1091 766
1092 766
1093 766
1094 766
1095 766
1096 766
1097 766
1054 767
1055 767
1056 767
1057 767
1058 767
1059 767
1060 767
1061 767
1062 767
1063 767
1064 767
1065 767
1066 767
1067 767
1068 767
1069 767
1070 767
1071 767
1072 767
1073 767
1074 767
1075 767
1076 767
1077 767
1078 767
1079 767
1080 767
1081 767
1082 767
1083 767
1084 767
1085 767
1086 767
1087 767
1088 767
1089 767
1090 767
1091 767
1092 767
1093 767
1094 767
1095 767
1096 767
1097 767
1054 768
1055 768
1056 768
1057 768
1058 768
1059 768
1060 768
1061 768
1062 768
1063 768
1064 768
1065 768
1066 768
1067 768
1068 768
1069 768
1070 768
1071 768
1072 768
1073 768
1074 768
1075 768
1076 768
1077 768
1078 768
1079 768
1080 768
1081 768
1082 768
1083 768
1084 768
1085 768
1086 768
1087 768
1088 768
1089 768
1090 768
1091 768
1092 768
1093 768
1094 768
1095 768
1096 768
1097 768
1054 769
1055 769
1056 769
1057 769
1058 769
1059 769
1060 769
1061 769
1062 769
1063 769
1064 769
1065 769
1066 769
1067 769
1068 769
1069 769
1070 769
1071 769
1072 769
1073 769
1074 769
1075 769
1076 769
1077 769
1078 769
1079 769
1080 769
1081 769
1082 769
1083 769
1084 769
1085 769
1086 769
1087 769
1088 769
1089 769
1090 769
1091 769
1092 769
1093 769
1094 769
1095 769
1096 769
1097 769
1054 770
1055 770
1056 770
1057 770
1058 770
1059 770
1060 770
1061 770
1062 770
1063 770
1064 770
1065 770
1066 770
1067 770
1068 770
1069 770
1070 770
1071 770
1072 770
1073 770
1074 770
1075 770
1076 770
1077 770
1078 770
1079 770
1080 770
1081 770
1082 770
1083 770
1084 770
1085 770
1086 770
1087 770
1088 770
1089 770
1090 770
1091 770
1092 770
1093 770
1094 770
1095 770
1096 770
1097 770
1054 771
1055 771
1056 771
1057 771
1058 771
1059 771
1060 771
1061 771
1062 771
1063 771
1064 771
1065 771
1066 771
1067 771
1068 771
1069 771
1070 771
1071 771
1072 771
1073 771
1074 771
1075 771
1076 771
1077 771
1078 771
1079 771
1080 771
1081 771
1082 771
1083 771
1084 771
1085 771
1086 771
1087 771
1088 771
1089 771
1090 771
1091 771
1092 771
1093 771
1094 771
1095 771
1096 771
1097 771
1054 772
1055 772
1056 772
1057 772
1058 772
1059 772
1060 772
1061 772
1062 772
1063 772
1064 772
1065 772
1066 772
1067 772
1068 772
1069 772
1070 772
1071 772
1072 772
1073 772
1074 772
1075 772
1076 772
1077 772
1078 772
1079 772
1080 772
1081 772
1082 772
1083 772
1084 772
1085 772
1086 772
1087 772
1088 772
1089 772
1090 772
1091 772
1092 772
1093 772
1094 772
1095 772
1096 772
1097 772
1054 773
1055 773
1056 773
1057 773
1058 773
1059 773
1060 773
1061 773
1062 773
1063 773
1064 773
1065 773
1066 773
1067 773
1068 773
1069 773
1070 773
1071 773
1072 773
1073 773
1074 773
1075 773
1076 773
1077 773
1078 773
1079 773
1080 773
1081 773
1082 773
1083 773
1084 773
1085 773
1086 773
1087 773
1088 773
1089 773
1090 773
1091 773
1092 773
1093 773
1094 773
1095 773
1096 773
1097 773
1054 774
1055 774
1056 774
1057 774
1058 774
1059 774
1060 774
1061 774
1062 774
1063 774
1064 774
1065 774
1066 774
1067 774
1068 774
1069 774
1070 774
1071 774
1072 774
1073 774
1074 774
1075 774
1076 774
1077 774
1078 774
1079 774
1080 774
1081 774
1082 774
1083 774
1084 774
1085 774
1086 774
1087 774
1088 774
1089 774
1090 774
1091 774
1092 774
1093 774
1094 774
1095 774
1096 774
1097 774
1054 775
1055 775
1056 775
1057 775
1058 775
1059 775
1060 775
1061 775
1062 775
1063 775
1064 775
1065 775
1066 775
1067 775
1068 775
1069 775
1070 775
1071 775
1072 775
1073 775
1074 775
1075 775
1076 775
1077 775
1078 775
1079 775
1080 775
1081 775
1082 775
1083 775
1084 775
1085 775
1086 775
1087 775
1088 775
1089 775
1090 775
1091 775
1092 775
1093 775
1094 775
1095 775
1096 775
1097 775
1054 776
1055 776
1056 776
1057 776
1058 776
1059 776
1060 776
1061 776
1062 776
1063 776
1064 776
1065 776
1066 776
1067 776
1068 776
1069 776
1070 776
1071 776
1072 776
1073 776
1074 776
1075 776
1076 776
1077 776
1078 776
1079 776
1080 776
1081 776
1082 776
1083 776
1084 776
1085 776
1086 776
1087 776
1088 776
1089 776
1090 776
1091 776
1092 776
1093 776
1094 776
1095 776
1096 776
1097 776
1054 777
1055 777
1056 777
1057 777
1058 777
1059 777
1060 777
1061 777
1062 777
1063 777
1064 777
1065 777
1066 777
1067 777
1068 777
1069 777
1070 777
1071 777
1072 777
1073 777
1074 777
1075 777
1076 777
1077 777
1078 777
1079 777
1080 777
1081 777
1082 777
1083 777
1084 777
1085 777
1086 777
1087 777
1088 777
1089 777
1090 777
1091 777
1092 777
1093 777
1094 777
1095 777
1096 777
1097 777
1174 822
1175 822
1176 822
1177 822
1178 822
1179 822
1180 822
1181 822
1182 822
1183 822
1184 822
1185 822
1186 822
1187 822
1188 822
1189 822
1190 822
1191 822
1192 822
1193 822
1194 822
1195 822
1196 822
1197 822
1198 822
1199 822
1200 822
1201 822
1202 822
1203 822
1204 822
1205 822
1206 822
1207 822
1208 822
1209 822
1210 822
1211 822
1212 822
1213 822
1214 822
1215 822
1216 822
1217 822
1174 823
1175 823
1176 823
1177 823
1178 823
1179 823
1180 823
1181 823
1182 823
1183 823
1184 823
1185 823
1186 823
1187 823
1188 823
1189 823
1190 823
1191 823
1192 823
1193 823
1194 823
1195 823
1196 823
1197 823
1198 823
1199 823
1200 823
1201 823
1202 823
1203 823
1204 823
1205 823
1206 823
1207 823
1208 823
1209 823
1210 823
1211 823
1212 823
1213 823
1214 823
1215 823
1216 823
1217 823
1174 824
1175 824
1176 824
1177 824
1178 824
1179 824
1180 824
1181 824
1182 824
1183 824
1184 824
1185 824
1186 824
1187 824
1188 824
1189 824
1190 824
1191 824
1192 824
1193 824
1194 824
1195 824
1196 824
1197 824
1198 824
1199 824
1200 824
1201 824
1202 824
1203 824
1204 824
1205 824
1206 824
1207 824
1208 824
1209 824
1210 824
1211 824
1212 824
1213 824
1214 824
1215 824
1216 824
1217 824
1174 825
1175 825
1176 825
1177 825
1178 825
1179 825
1180 825
1181 825
1182 825
1183 825
1184 825
1185 825
1186 825
1187 825
1188 825
1189 825
1190 825
1191 825
1192 825
1193 825
1194 825
1195 825
1196 825
1197 825
1198 825
1199 825
1200 825
1201 825
1202 825
1203 825
1204 825
1205 825
1206 825
1207 825
1208 825
1209 825
1210 825
1211 825
1212 825
1213 825
1214 825
1215 825
1216 825
1217 825
1174 826
1175 826
1176 826
1177 826
1178 826
1179 826
1180 826
1181 826
1182 826
1183 826
1184 826
1185 826
1186 826
1187 826
1188 826
1189 826
1190 826
1191 826
1192 826
1193 826
1194 826
1195 826
1196 826
1197 826
1198 826
1199 826
1200 826
1201 826
1202 826
1203 826
1204 826
1205 826
1206 826
1207 826
1208 826
1209 826
1210 826
1211 826
1212 826
1213 826
1214 826
1215 826
1216 826
1217 826
1174 827
1175 827
1176 827
1177 827
1178 827
1179 827
1180 827
1181 827
1182 827
1183 827
1184 827
1185 827
1186 827
1187 827
1188 827
1189 827
1190 827
1191 827
1192 827
1193 827
1194 827
1195 827
1196 827
1197 827
1198 827
1199 827
1200 827
1201 827
1202 827
1203 827
1204 827
1205 827
1206 827
1207 827
1208 827
1209 827
1210 827
1211 827
1212 827
1213 827
1214 827
1215 827
1216 827
1217 827
1174 828
1175 828
1176 828
1177 828
1178 828
1179 828
1180 828
1181 828
1182 828
1183 828
1184 828
1185 828
1186 828
1187 828
1188 828
1189 828
1190 828
1191 828
1192 828
1193 828
1194 828
1195 828
1196 828
1197 828
1198 828
1199 828
1200 828
1201 828
1202 828
1203 828
1204 828
1205 828
1206 828
1207 828
1208 828
1209 828
1210 828
1211 828
1212 828
1213 828
1214 828
1215 828
1216 828
1217 828
1174 829
1175 829
1176 829
1177 829
1178 829
1179 829
1180 829
1181 829
1182 829
1183 829
1184 829
1185 829
1186 829
1187 829
1188 829
1189 829
1190 829
1191 829
1192 829
1193 829
1194 829
1195 829
1196 829
1197 829
1198 829
1199 829
1200 829
1201 829
1202 829
1203 829
1204 829
1205 829
1206 829
1207 829
1208 829
1209 829
1210 829
1211 829
1212 829
1213 829
1214 829
1215 829
1216 829
1217 829
1174 830
1175 830
1176 830
1177 830
1178 830
1179 830
1180 830
1181 830
1182 830
1183 830
1184 830
1185 830
1186 830
1187 830
1188 830
1189 830
1190 830
1191 830
1192 830
1193 830
1194 830
1195 830
1196 830
1197 830
1198 830
1199 830
1200 830
1201 830
1202 830
1203 830
1204 830
1205 830
1206 830
1207 830
1208 830
1209 830
1210 830
1211 830
1212 830
1213 830
1214 830
1215 830
1216 830
1217 830
1174 831
1175 831
1176 831
1177 831
1178 831
1179 831
1180 831
1181 831
1182 831
1183 831
1184 831
1185 831
1186 831
1187 831
1188 831
1189 831
1190 831
1191 831
1192 831
1193 831
1194 831
1195 831
1196 831
1197 831
1198 831
1199 831
1200 831
1201 831
1202 831
1203 831
1204 831
1205 831
1206 831
1207 831
1208 831
1209 831
1210 831
1211 831
1212 831
1213 831
1214 831
1215 831
1216 831
1217 831
1174 832
1175 832
1176 832
1177 832
1178 832
1179 832
1180 832
1181 832
1182 832
1183 832
1184 832
1185 832
1186 832
1187 832
1188 832
1189 832
1190 832
1191 832
1192 832
1193 832
1194 832
1195 832
1196 832
1197 832
1198 832
1199 832
1200 832
1201 832
1202 832
1203 832
1204 832
1205 832
1206 832
1207 832
1208 832
1209 832
1210 832
1211 832
1212 832
1213 832
1214 832
1215 832
1216 832
1217 832
1174 833
1175 833
1176 833
1177 833
1178 833
1179 833
1180 833
1181 833
1182 833
1183 833
1184 833
1185 833
1186 833
1187 833
1188 833
1189 833
1190 833
1191 833
1192 833
1193 833
1194 833
1195 833
1196 833
1197 833
1198 833
1199 833
1200 833
1201 833
1202 833
1203 833
1204 833
1205 833
1206 833
1207 833
1208 833
1209 833
1210 833
1211 833
1212 833
1213 833
1214 833
1215 833
1216 833
1217 833
1174 834
1175 834
1176 834
1177 834
1178 834
1179 834
1180 834
1181 834
1182 834
1183 834
1184 834
1185 834
1186 834
1187 834
1188 834
1189 834
1190 834
1191 834
1192 834
1193 834
1194 834
1195 834
1196 834
1197 834
1198 834
1199 834
1200 834
1201 834
1202 834
1203 834
1204 834
1205 834
1206 834
1207 834
1208 834
1209 834
1210 834
1211 834
1212 834
1213 834
1214 834
1215 834
1216 834
1217 834
1174 835
1175 835
1176 835
1177 835
1178 835
1179 835
1180 835
1181 835
1182 835
1183 835
1184 835
1185 835
1186 835
1187 835
1188 835
1189 835
1190 835
1191 835
1192 835
1193 835
1194 835
1195 835
1196 835
1197 835
1198 835
1199 835
1200 835
1201 835
1202 835
1203 835
1204 835
1205 835
1206 835
1207 835
1208 835
1209 835
1210 835
1211 835
1212 835
1213 835
1214 835
1215 835
1216 835
1217 835
1174 836
1175 836
1176 836
1177 836
1178 836
1179 836
1180 836
1181 836
1182 836
1183 836
1184 836
1185 836
1186 836
1187 836
1188 836
1189 836
1190 836
1191 836
1192 836
1193 836
1194 836
1195 836
1196 836
1197 836
1198 836
1199 836
1200 836
1201 836
1202 836
1203 836
1204 836
1205 836
1206 836
1207 836
1208 836
1209 836
1210 836
1211 836
1212 836
1213 836
1214 836
1215 836
1216 836
1217 836
1174 837
1175 837
1176 837
1177 837
1178 837
1179 837
1180 837
1181 837
1182 837
1183 837
1184 837
1185 837
1186 837
1187 837
1188 837
1189 837
1190 837
1191 837
1192 837
1193 837
1194 837
1195 837
1196 837
1197 837
1198 837
1199 837
1200 837
1201 837
1202 837
1203 837
1204 837
1205 837
1206 837
1207 837
1208 837
1209 837
1210 837
1211 837
1212 837
1213 837
1214 837
1215 837
1216 837
1217 837
1174 838
1175 838
1176 838
1177 838
1178 838
1179 838
1180 838
1181 838
1182 838
1183 838
1184 838
1185 838
1186 838
1187 838
1188 838
1189 838
1190 838
1191 838
1192 838
1193 838
1194 838
1195 838
1196 838
1197 838
1198 838
1199 838
1200 838
1201 838
1202 838
1203 838
1204 838
1205 838
1206 838
1207 838
1208 838
1209 838
1210 838
1211 838
1212 838
1213 838
1214 838
1215 838
1216 838
1217 838
1174 839
1175 839
1176 839
1177 839
1178 839
1179 839
1180 839
1181 839
1182 839
1183 839
1184 839
1185 839
1186 839
1187 839
1188 839
1189 839
1190 839
1191 839
1192 839
1193 839
1194 839
1195 839
1196 839
1197 839
1198 839
1199 839
1200 839
1201 839
1202 839
1203 839
1204 839
1205 839
1206 839
1207 839
1208 839
1209 839
1210 839
1211 839
1212 839
1213 839
1214 839
1215 839
1216 839
1217 839
1174 840
1175 840
1176 840
1177 840
1178 840
1179 840
1180 840
1181 840
1182 840
1183 840
1184 840
1185 840
1186 840
1187 840
1188 840
1189 840
1190 840
1191 840
1192 840
1193 840
1194 840
1195 840
1196 840
1197 840
1198 840
1199 840
1200 840
1201 840
1202 840
1203 840
1204 840
1205 840
1206 840
1207 840
1208 840
1209 840
1210 840
1211 840
1212 840
1213 840
1214 840
1215 840
1216 840
1217 840
1174 841
1175 841
1176 841
1177 841
1178 841
1179 841
1180 841
1181 841
1182 841
1183 841
1184 841
1185 841
1186 841
1187 841
1188 841
1189 841
1190 841
1191 841
1192 841
1193 841
1194 841
1195 841
1196 841
1197 841
1198 841
1199 841
1200 841
1201 841
1202 841
1203 841
1204 841
1205 841
1206 841
1207 841
1208 841
1209 841
1210 841
1211 841
1212 841
1213 841
1214 841
1215 841
1216 841
1217 841
1174 842
1175 842
1176 842
1177 842
1178 842
1179 842
1180 842
1181 842
1182 842
1183 842
1184 842
1185 842
1186 842
1187 842
1188 842
1189 842
1190 842
1191 842
1192 842
1193 842
1194 842
1195 842
1196 842
1197 842
1198 842
1199 842
1200 842
1201 842
1202 842
1203 842
1204 842
1205 842
1206 842
1207 842
1208 842
1209 842
1210 842
1211 842
1212 842
1213 842
1214 842
1215 842
1216 842
1217 842
1174 843
1175 843
1176 843
1177 843
1178 843
1179 843
1180 843
1181 843
1182 843
1183 843
1184 843
1185 843
1186 843
1187 843
1188 843
1189 843
1190 843
1191 843
1192 843
1193 843
1194 843
1195 843
1196 843
1197 843
1198 843
1199 843
1200 843
1201 843
1202 843
1203 843
1204 843
1205 843
1206 843
1207 843
1208 843
1209 843
1210 843
1211 843
1212 843
1213 843
1214 843
1215 843
1216 843
1217 843
1174 844
1175 844
1176 844
1177 844
1178 844
1179 844
1180 844
1181 844
1182 844
1183 844
1184 844
1185 844
1186 844
1187 844
1188 844
1189 844
1190 844
1191 844
1192 844
1193 844
1194 844
1195 844
1196 844
1197 844
1198 844
1199 844
1200 844
1201 844
1202 844
1203 844
1204 844
1205 844
1206 844
1207 844
1208 844
1209 844
1210 844
1211 844
1212 844
1213 844
1214 844
1215 844
1216 844
1217 844
1174 845
1175 845
1176 845
1177 845
1178 845
1179 845
1180 845
1181 845
1182 845
1183 845
1184 845
1185 845
1186 845
1187 845
1188 845
1189 845
1190 845
1191 845
1192 845
1193 845
1194 845
1195 845
1196 845
1197 845
1198 845
1199 845
1200 845
1201 845
1202 845
1203 845
1204 845
1205 845
1206 845
1207 845
1208 845
1209 845
1210 845
1211 845
1212 845
1213 845
1214 845
1215 845
1216 845
1217 845
1174 846
1175 846
1176 846
1177 846
1178 846
1179 846
1180 846
1181 846
1182 846
1183 846
1184 846
1185 846
1186 846
1187 846
1188 846
1189 846
1190 846
1191 846
1192 846
1193 846
1194 846
1195 846
1196 846
1197 846
1198 846
1199 846
1200 846
1201 846
1202 846
1203 846
1204 846
1205 846
1206 846
1207 846
1208 846
1209 846
1210 846
1211 846
1212 846
1213 846
1214 846
1215 846
1216 846
1217 846
1174 847
1175 847
1176 847
1177 847
1178 847
1179 847
1180 847
1181 847
1182 847
1183 847
1184 847
1185 847
1186 847
1187 847
1188 847
1189 847
1190 847
1191 847
1192 847
1193 847
1194 847
1195 847
1196 847
1197 847
1198 847
1199 847
1200 847
1201 847
1202 847
1203 847
1204 847
1205 847
1206 847
1207 847
1208 847
1209 847
1210 847
1211 847
1212 847
1213 847
1214 847
1215 847
1216 847
1217 847
1174 848
1175 848
1176 848
1177 848
1178 848
1179 848
1180 848
1181 848
1182 848
1183 848
1184 848
1185 848
1186 848
1187 848
1188 848
1189 848
1190 848
1191 848
1192 848
1193 848
1194 848
1195 848
1196 848
1197 848
1198 848
1199 848
1200 848
1201 848
1202 848
1203 848
1204 848
1205 848
1206 848
1207 848
1208 848
1209 848
1210 848
1211 848
1212 848
1213 848
1214 848
1215 848
1216 848
1217 848
1174 849
1175 849
1176 849
1177 849
1178 849
1179 849
1180 849
1181 849
1182 849
1183 849
1184 849
1185 849
1186 849
1187 849
1188 849
1189 849
1190 849
1191 849
1192 849
1193 849
1194 849
1195 849
1196 849
1197 849
1198 849
1199 849
1200 849
1201 849
1202 849
1203 849
1204 849
1205 849
1206 849
1207 849
1208 849
1209 849
1210 849
1211 849
1212 849
1213 849
1214 849
1215 849
1216 849
1217 849
1174 850
1175 850
1176 850
1177 850
1178 850
1179 850
1180 850
1181 850
1182 850
1183 850
1184 850
1185 850
1186 850
1187 850
1188 850
1189 850
1190 850
1191 850
1192 850
1193 850
1194 850
1195 850
1196 850
1197 850
1198 850
1199 850
1200 850
1201 850
1202 850
1203 850
1204 850
1205 850
1206 850
1207 850
1208 850
1209 850
1210 850
1211 850
1212 850
1213 850
1214 850
1215 850
1216 850
1217 850
1174 851
1175 851
1176 851
1177 851
1178 851
1179 851
1180 851
1181 851
1182 851
1183 851
1184 851
1185 851
1186 851
1187 851
1188 851
1189 851
1190 851
1191 851
1192 851
1193 851
1194 851
1195 851
1196 851
1197 851
1198 851
1199 851
1200 851
1201 851
1202 851
1203 851
1204 851
1205 851
1206 851
1207 851
1208 851
1209 851
1210 851
1211 851
1212 851
1213 851
1214 851
1215 851
1216 851
1217 851
1174 852
1175 852
1176 852
1177 852
1178 852
1179 852
1180 852
1181 852
1182 852
1183 852
1184 852
1185 852
1186 852
1187 852
1188 852
1189 852
1190 852
1191 852
1192 852
1193 852
1194 852
1195 852
1196 852
1197 852
1198 852
1199 852
1200 852
1201 852
1202 852
1203 852
1204 852
1205 852
1206 852
1207 852
1208 852
1209 852
1210 852
1211 852
1212 852
1213 852
1214 852
1215 852
1216 852
1217 852
1174 853
1175 853
1176 853
1177 853
1178 853
1179 853
1180 853
1181 853
1182 853
1183 853
1184 853
1185 853
1186 853
1187 853
1188 853
1189 853
1190 853
1191 853
1192 853
1193 853
1194 853
1195 853
1196 853
1197 853
1198 853
1199 853
1200 853
1201 853
1202 853
1203 853
1204 853
1205 853
1206 853
1207 853
1208 853
1209 853
1210 853
1211 853
1212 853
1213 853
1214 853
1215 853
1216 853
1217 853
1174 854
1175 854
1176 854
1177 854
1178 854
1179 854
1180 854
1181 854
1182 854
1183 854
1184 854
1185 854
1186 854
1187 854
1188 854
1189 854
1190 854
1191 854
1192 854
1193 854
1194 854
1195 854
1196 854
1197 854
1198 854
1199 854
1200 854
1201 854
1202 854
1203 854
1204 854
1205 854
1206 854
1207 854
1208 854
1209 854
1210 854
1211 854
1212 854
1213 854
1214 854
1215 854
1216 854
1217 854
1174 855
1175 855
1176 855
1177 855
1178 855
1179 855
1180 855
1181 855
1182 855
1183 855
1184 855
1185 855
1186 855
1187 855
1188 855
1189 855
1190 855
1191 855
1192 855
1193 855
1194 855
1195 855
1196 855
1197 855
1198 855
1199 855
1200 855
1201 855
1202 855
1203 855
1204 855
1205 855
1206 855
1207 855
1208 855
1209 855
1210 855
1211 855
1212 855
1213 855
1214 855
1215 855
1216 855
1217 855
1174 856
1175 856
1176 856
1177 856
1178 856
1179 856
1180 856
1181 856
1182 856
1183 856
1184 856
1185 856
1186 856
1187 856
1188 856
1189 856
1190 856
1191 856
1192 856
1193 856
1194 856
1195 856
1196 856
1197 856
1198 856
1199 856
1200 856
1201 856
1202 856
1203 856
1204 856
1205 856
1206 856
1207 856
1208 856
1209 856
1210 856
1211 856
1212 856
1213 856
1214 856
1215 856
1216 856
1217 856
1174 857
1175 857
1176 857
1177 857
1178 857
1179 857
1180 857
1181 857
1182 857
1183 857
1184 857
1185 857
1186 857
1187 857
1188 857
1189 857
1190 857
1191 857
1192 857
1193 857
1194 857
1195 857
1196 857
1197 857
1198 857
1199 857
1200 857
1201 857
1202 857
1203 857
1204 857
1205 857
1206 857
1207 857
1208 857
1209 857
1210 857
1211 857
1212 857
1213 857
1214 857
1215 857
1216 857
1217 857
1174 858
1175 858
1176 858
1177 858
1178 858
1179 858
1180 858
1181 858
1182 858
1183 858
1184 858
1185 858
1186 858
1187 858
1188 858
1189 858
1190 858
1191 858
1192 858
1193 858
1194 858
1195 858
1196 858
1197 858
1198 858
1199 858
1200 858
1201 858
1202 858
1203 858
1204 858
1205 858
1206 858
1207 858
1208 858
1209 858
1210 858
1211 858
1212 858
1213 858
1214 858
1215 858
1216 858
1217 858
1294 903
1295 903
1296 903
1297 903
1298 903
1299 903
1300 903
1301 903
1302 903
1303 903
1304 903
1305 903
1306 903
1307 903
1308 903
1309 903
1310 903
1311 903
1312 903
1313 903
1314 903
1315 903
1316 903
1317 903
1318 903
1319 903
1320 903
1321 903
1322 903
1323 903
1324 903
1325 903
1326 903
1327 903
1328 903
1329 903
1330 903
1331 903
1332 903
1333 903
1334 903
1335 903
1336 903
1337 903
1294 904
1295 904
1296 904
1297 904
1298 904
1299 904
1300 904
1301 904
1302 904
1303 904
1304 904
1305 904
1306 904
1307 904
1308 904
1309 904
1310 904
1311 904
1312 904
1313 904
1314 904
1315 904
1316 904
1317 904
1318 904
1319 904
1320 904
1321 904
1322 904
1323 904
1324 904
1325 904
1326 904
1327 904
1328 904
1329 904
1330 904
1331 904
1332 904
1333 904
1334 904
1335 904
1336 904
1337 904
1294 905
1295 905
1296 905
1297 905
1298 905
1299 905
1300 905
1301 905
1302 905
1303 905
1304 905
1305 905
1306 905
1307 905
1308 905
1309 905
1310 905
1311 905
1312 905
1313 905
1314 905
1315 905
1316 905
1317 905
1318 905
1319 905
1320 905
1321 905
1322 905
1323 905
1324 905
1325 905
1326 905
1327 905
1328 905
1329 905
1330 905
1331 905
1332 905
1333 905
1334 905
1335 905
1336 905
1337 905
1294 906
1295 906
1296 906
1297 906
1298 906
1299 906
1300 906
1301 906
1302 906
1303 906
1304 906
1305 906
1306 906
1307 906
1308 906
1309 906
1310 906
1311 906
1312 906
1313 906
1314 906
1315 906
1316 906
1317 906
1318 906
1319 906
1320 906
1321 906
1322 906
1323 906
1324 906
1325 906
1326 906
1327 906
1328 906
1329 906
1330 906
1331 906
1332 906
1333 906
1334 906
1335 906
1336 906
1337 906
1294 907
1295 907
1296 907
1297 907
1298 907
1299 907
1300 907
1301 907
1302 907
1303 907
1304 907
1305 907
1306 907
1307 907
1308 907
1309 907
1310 907
1311 907
1312 907
1313 907
1314 907
1315 907
1316 907
1317 907
1318 907
1319 907
1320 907
1321 907
1322 907
1323 907
1324 907
1325 907
1326 907
1327 907
1328 907
1329 907
1330 907
1331 907
1332 907
1333 907
1334 907
1335 907
1336 907
1337 907
1294 908
1295 908
1296 908
1297 908
1298 908
1299 908
1300 908
1301 908
1302 908
1303 908
1304 908
1305 908
1306 908
1307 908
1308 908
1309 908
1310 908
1311 908
1312 908
1313 908
1314 908
1315 908
1316 908
1317 908
1318 908
1319 908
1320 908
1321 908
1322 908
1323 908
1324 908
1325 908
1326 908
1327 908
1328 908
1329 908
1330 908
1331 908
1332 908
1333 908
1334 908
1335 908
1336 908
1337 908
1294 909
1295 909
1296 909
1297 909
1298 909
1299 909
1300 909
1301 909
1302 909
1303 909
1304 909
1305 909
1306 909
1307 909
1308 909
1309 909
1310 909
1311 909
1312 909
1313 909
1314 909
1315 909
1316 909
1317 909
1318 909
1319 909
1320 909
1321 909
1322 909
1323 909
1324 909
1325 909
1326 909
1327 909
1328 909
1329 909
1330 909
1331 909
1332 909
1333 909
1334 909
1335 909
1336 909
1337 909
1294 910
1295 910
1296 910
1297 910
1298 910
1299 910
1300 910
1301 910
1302 910
1303 910
1304 910
1305 910
1306 910
1307 910
1308 910
1309 910
1310 910
1311 910
1312 910
1313 910
1314 910
1315 910
1316 910
1317 910
1318 910
1319 910
1320 910
1321 910
1322 910
1323 910
1324 910
1325 910
1326 910
1327 910
1328 910
1329 910
1330 910
1331 910
1332 910
1333 910
1334 910
1335 910
1336 910
1337 910
1294 911
1295 911
1296 911
1297 911
1298 911
1299 911
1300 911
1301 911
1302 911
1303 911
1304 911
1305 911
1306 911
1307 911
1308 911
1309 911
1310 911
1311 911
1312 911
1313 911
1314 911
1315 911
1316 911
1317 911
1318 911
1319 911
1320 911
1321 911
1322 911
1323 911
1324 911
1325 911
1326 911
1327 911
1328 911
1329 911
1330 911
1331 911
1332 911
1333 911
1334 911
1335 911
1336 911
1337 911
1294 912
1295 912
1296 912
1297 912
1298 912
1299 912
1300 912
1301 912
1302 912
1303 912
1304 912
1305 912
1306 912
1307 912
1308 912
1309 912
1310 912
1311 912
1312 912
1313 912
1314 912
1315 912
1316 912
1317 912
1318 912
1319 912
1320 912
1321 912
1322 912
1323 912
1324 912
1325 912
1326 912
1327 912
1328 912
1329 912
1330 912
1331 912
1332 912
1333 912
1334 912
1335 912
1336 912
1337 912
1294 913
1295 913
1296 913
1297 913
1298 913
1299 913
1300 913
1301 913
1302 913
1303 913
1304 913
1305 913
1306 913
1307 913
1308 913
1309 913
1310 913
1311 913
1312 913
1313 913
1314 913
1315 913
1316 913
1317 913
1318 913
1319 913
1320 913
1321 913
1322 913
1323 913
1324 913
1325 913
1326 913
1327 913
1328 913
1329 913
1330 913
1331 913
1332 913
1333 913
1334 913
1335 913
1336 913
1337 913
1294 914
1295 914
1296 914
1297 914
1298 914
1299 914
1300 914
1301 914
1302 914
1303 914
1304 914
1305 914
1306 914
1307 914
1308 914
1309 914
1310 914
1311 914
1312 914
1313 914
1314 914
1315 914
1316 914
1317 914
1318 914
1319 914
1320 914
1321 914
1322 914
1323 914
1324 914
1325 914
1326 914
1327 914
1328 914
1329 914
1330 914
1331 914
1332 914
1333 914
1334 914
1335 914
1336 914
1337 914
1294 915
1295 915
1296 915
1297 915
1298 915
1299 915
1300 915
1301 915
1302 915
1303 915
1304 915
1305 915
1306 915
1307 915
1308 915
1309 915
1310 915
1311 915
1312 915
1313 915
1314 915
1315 915
1316 915
1317 915
1318 915
1319 915
1320 915
1321 915
1322 915
1323 915
1324 915
1325 915
1326 915
1327 915
1328 915
1329 915
1330 915
1331 915
1332 915
1333 915
1334 915
1335 915
1336 915
1337 915
1294 916
1295 916
1296 916
1297 916
1298 916
1299 916
1300 916
1301 916
1302 916
1303 916
1304 916
1305 916
1306 916
1307 916
1308 916
1309 916
1310 916
1311 916
1312 916
1313 916
1314 916
1315 916
1316 916
1317 916
1318 916
1319 916
1320 916
1321 916
1322 916
1323 916
1324 916
1325 916
1326 916
1327 916
1328 916
1329 916
1330 916
1331 916
1332 916
1333 916
1334 916
1335 916
1336 916
1337 916
1294 917
1295 917
1296 917
1297 917
1298 917
1299 917
1300 917
1301 917
1302 917
1303 917
1304 917
1305 917
1306 917
1307 917
1308 917
1309 917
1310 917
1311 917
1312 917
1313 917
1314 917
1315 917
1316 917
1317 917
1318 917
1319 917
1320 917
1321 917
1322 917
1323 917
1324 917
1325 917
1326 917
1327 917
1328 917
1329 917
1330 917
1331 917
1332 917
1333 917
1334 917
1335 917
1336 917
1337 917
1294 918
1295 918
1296 918
1297 918
1298 918
1299 918
1300 918
1301 918
1302 918
1303 918
1304 918
1305 918
1306 918
1307 918
1308 918
1309 918
1310 918
1311 918
1312 918
1313 918
1314 918
1315 918
1316 918
1317 918
1318 918
1319 918
1320 918
1321 918
1322 918
1323 918
1324 918
1325 918
1326 918
1327 918
1328 918
1329 918
1330 918
1331 918
1332 918
1333 918
1334 918
1335 918
1336 918
1337 918
1294 919
1295 919
1296 919
1297 919
1298 919
1299 919
1300 919
1301 919
1302 919
1303 919
1304 919
1305 919
1306 919
1307 919
1308 919
1309 919
1310 919
1311 919
1312 919
1313 919
1314 919
1315 919
1316 919
1317 919
1318 919
1319 919
1320 919
1321 919
1322 919
1323 919
1324 919
1325 919
1326 919
1327 919
1328 919
1329 919
1330 919
1331 919
1332 919
1333 919
1334 919
1335 919
1336 919
1337 919
1294 920
1295 920
1296 920
1297 920
1298 920
1299 920
1300 920
1301 920
1302 920
1303 920
1304 920
1305 920
1306 920
1307 920
1308 920
1309 920
1310 920
1311 920
1312 920
1313 920
1314 920
1315 920
1316 920
1317 920
1318 920
1319 920
1320 920
1321 920
1322 920
1323 920
1324 920
1325 920
1326 920
1327 920
1328 920
1329 920
1330 920
1331 920
1332 920
1333 920
1334 920
1335 920
1336 920
1337 920
1294 921
1295 921
1296 921
1297 921
1298 921
1299 921
1300 921
1301 921
1302 921
1303 921
1304 921
1305 921
1306 921
1307 921
1308 921
1309 921
1310 921
1311 921
1312 921
1313 921
1314 921
1315 921
1316 921
1317 921
1318 921
1319 921
1320 921
1321 921
1322 921
1323 921
1324 921
1325 921
1326 921
1327 921
1328 921
1329 921
1330 921
1331 921
1332 921
1333 921
1334 921
1335 921
1336 921
1337 921
1294 922
1295 922
1296 922
1297 922
1298 922
1299 922
1300 922
1301 922
1302 922
1303 922
1304 922
1305 922
1306 922
1307 922
1308 922
1309 922
1310 922
1311 922
1312 922
1313 922
1314 922
1315 922
1316 922
1317 922
1318 922
1319 922
1320 922
1321 922
1322 922
1323 922
1324 922
1325 922
1326 922
1327 922
1328 922
1329 922
1330 922
1331 922
1332 922
1333 922
1334 922
1335 922
1336 922
1337 922
1294 923
1295 923
1296 923
1297 923
1298 923
1299 923
1300 923
1301 923
1302 923
1303 923
1304 923
1305 923
1306 923
1307 923
1308 923
1309 923
1310 923
1311 923
1312 923
1313 923
1314 923
1315 923
1316 923
1317 923
1318 923
1319 923
1320 923
1321 923
1322 923
1323 923
1324 923
1325 923
1326 923
1327 923
1328 923
1329 923
1330 923
1331 923
1332 923
1333 923
1334 923
1335 923
1336 923
1337 923
1294 924
1295 924
1296 924
1297 924
1298 924
1299 924
1300 924
1301 924
1302 924
1303 924
1304 924
1305 924
1306 924
1307 924
1308 924
1309 924
1310 924
1311 924
1312 924
1313 924
1314 924
1315 924
1316 924
1317 924
1318 924
1319 924
1320 924
1321 924
1322 924
1323 924
1324 924
1325 924
1326 924
1327 924
1328 924
1329 924
1330 924
1331 924
1332 924
1333 924
1334 924
1335 924
1336 924
1337 924
1294 925
1295 925
1296 925
1297 925
1298 925
1299 925
1300 925
1301 925
1302 925
1303 925
1304 925
1305 925
1306 925
1307 925
1308 925
1309 925
1310 925
1311 925
1312 925
1313 925
1314 925
1315 925
1316 925
1317 925
1318 925
1319 925
1320 925
1321 925
1322 925
1323 925
1324 925
1325 925
1326 925
1327 925
1328 925
1329 925
1330 925
1331 925
1332 925
1333 925
1334 925
1335 925
1336 925
1337 925
1294 926
1295 926
1296 926
1297 926
1298 926
1299 926
1300 926
1301 926
1302 926
1303 926
1304 926
1305 926
1306 926
1307 926
1308 926
1309 926
1310 926
1311 926
1312 926
1313 926
1314 926
1315 926
1316 926
1317 926
1318 926
1319 926
1320 926
1321 926
1322 926
1323 926
1324 926
1325 926
1326 926
1327 926
1328 926
1329 926
1330 926
1331 926
1332 926
1333 926
1334 926
1335 926
1336 926
1337 926
1294 927
1295 927
1296 927
1297 927
1298 927
1299 927
1300 927
1301 927
1302 927
1303 927
1304 927
1305 927
1306 927
1307 927
1308 927
1309 927
1310 927
1311 927
1312 927
1313 927
1314 927
1315 927
1316 927
1317 927
1318 927
1319 927
1320 927
1321 927
1322 927
1323 927
1324 927
1325 927
1326 927
1327 927
1328 927
1329 927
1330 927
1331 927
1332 927
1333 927
1334 927
1335 927
1336 927
1337 927
1294 928
1295 928
1296 928
1297 928
1298 928
1299 928
1300 928
1301 928
1302 928
1303 928
1304 928
1305 928
1306 928
1307 928
1308 928
1309 928
1310 928
1311 928
1312 928
1313 928
1314 928
1315 928
1316 928
1317 928
1318 928
1319 928
1320 928
1321 928
1322 928
1323 928
1324 928
1325 928
1326 928
1327 928
1328 928
1329 928
1330 928
1331 928
1332 928
1333 928
1334 928
1335 928
1336 928
1337 928
1294 929
1295 929
1296 929
1297 929
1298 929
1299 929
1300 929
1301 929
1302 929
1303 929
1304 929
1305 929
1306 929
1307 929
1308 929
1309 929
1310 929
1311 929
1312 929
1313 929
1314 929
1315 929
1316 929
1317 929
1318 929
1319 929
1320 929
1321 929
1322 929
1323 929
1324 929
1325 929
1326 929
1327 929
1328 929
1329 929
1330 929
1331 929
1332 929
1333 929
1334 929
1335 929
1336 929
1337 929
1294 930
1295 930
1296 930
1297 930
1298 930
1299 930
1300 930
1301 930
1302 930
1303 930
1304 930
1305 930
1306 930
1307 930
1308 930
1309 930
1310 930
1311 930
1312 930
1313 930
1314 930
1315 930
1316 930
1317 930
1318 930
1319 930
1320 930
1321 930
1322 930
1323 930
1324 930
1325 930
1326 930
1327 930
1328 930
1329 930
1330 930
1331 930
1332 930
1333 930
1334 930
1335 930
1336 930
1337 930
1294 931
1295 931
1296 931
1297 931
1298 931
1299 931
1300 931
1301 931
1302 931
1303 931
1304 931
1305 931
1306 931
1307 931
1308 931
1309 931
1310 931
1311 931
1312 931
1313 931
1314 931
1315 931
1316 931
1317 931
1318 931
1319 931
1320 931
1321 931
1322 931
1323 931
1324 931
1325 931
1326 931
1327 931
1328 931
1329 931
1330 931
1331 931
1332 931
1333 931
1334 931
1335 931
1336 931
1337 931
1294 932
1295 932
1296 932
1297 932
1298 932
1299 932
1300 932
1301 932
1302 932
1303 932
1304 932
1305 932
1306 932
1307 932
1308 932
1309 932
1310 932
1311 932
1312 932
1313 932
1314 932
1315 932
1316 932
1317 932
1318 932
1319 932
1320 932
1321 932
1322 932
1323 932
1324 932
1325 932
1326 932
1327 932
1328 932
1329 932
1330 932
1331 932
1332 932
1333 932
1334 932
1335 932
1336 932
1337 932
1294 933
1295 933
1296 933
1297 933
1298 933
1299 933
1300 933
1301 933
1302 933
1303 933
1304 933
1305 933
1306 933
1307 933
1308 933
1309 933
1310 933
1311 933
1312 933
1313 933
1314 933
1315 933
1316 933
1317 933
1318 933
1319 933
1320 933
1321 933
1322 933
1323 933
1324 933
1325 933
1326 933
1327 933
1328 933
1329 933
1330 933
1331 933
1332 933
1333 933
1334 933
1335 933
1336 933
1337 933
1294 934
1295 934
1296 934
1297 934
1298 934
1299 934
1300 934
1301 934
1302 934
1303 934
1304 934
1305 934
1306 934
1307 934
1308 934
1309 934
1310 934
1311 934
1312 934
1313 934
1314 934
1315 934
1316 934
1317 934
1318 934
1319 934
1320 934
1321 934
1322 934
1323 934
1324 934
1325 934
1326 934
1327 934
1328 934
1329 934
1330 934
1331 934
1332 934
1333 934
1334 934
1335 934
1336 934
1337 934
1294 935
1295 935
1296 935
1297 935
1298 935
1299 935
1300 935
1301 935
1302 935
1303 935
1304 935
1305 935
1306 935
1307 935
1308 935
1309 935
1310 935
1311 935
1312 935
1313 935
1314 935
1315 935
1316 935
1317 935
1318 935
1319 935
1320 935
1321 935
1322 935
1323 935
1324 935
1325 935
1326 935
1327 935
1328 935
1329 935
1330 935
1331 935
1332 935
1333 935
1334 935
1335 935
1336 935
1337 935
1294 936
1295 936
1296 936
1297 936
1298 936
1299 936
1300 936
1301 936
1302 936
1303 936
1304 936
1305 936
1306 936
1307 936
1308 936
1309 936
1310 936
1311 936
1312 936
1313 936
1314 936
1315 936
1316 936
1317 936
1318 936
1319 936
1320 936
1321 936
1322 936
1323 936
1324 936
1325 936
1326 936
1327 936
1328 936
1329 936
1330 936
1331 936
1332 936
1333 936
1334 936
1335 936
1336 936
1337 936
1294 937
1295 937
1296 937
1297 937
1298 937
1299 937
1300 937
1301 937
1302 937
1303 937
1304 937
1305 937
1306 937
1307 937
1308 937
1309 937
1310 937
1311 937
1312 937
1313 937
1314 937
1315 937
1316 937
1317 937
1318 937
1319 937
1320 937
1321 937
1322 937
1323 937
1324 937
1325 937
1326 937
1327 937
1328 937
1329 937
1330 937
1331 937
1332 937
1333 937
1334 937
1335 937
1336 937
1337 937
1294 938
1295 938
1296 938
1297 938
1298 938
1299 938
1300 938
1301 938
1302 938
1303 938
1304 938
1305 938
1306 938
1307 938
1308 938
1309 938
1310 938
1311 938
1312 938
1313 938
1314 938
1315 938
1316 938
1317 938
1318 938
1319 938
1320 938
1321 938
1322 938
1323 938
1324 938
1325 938
1326 938
1327 938
1328 938
1329 938
1330 938
1331 938
1332 938
1333 938
1334 938
1335 938
1336 938
1337 938
1294 939
1295 939
1296 939
1297 939
1298 939
1299 939
1300 939
1301 939
1302 939
1303 939
1304 939
1305 939
1306 939
1307 939
1308 939
1309 939
1310 939
1311 939
1312 939
1313 939
1314 939
1315 939
1316 939
1317 939
1318 939
1319 939
1320 939
1321 939
1322 939
1323 939
1324 939
1325 939
1326 939
1327 939
1328 939
1329 939
1330 939
1331 939
1332 939
1333 939
1334 939
1335 939
1336 939
1337 939
1414 984
1415 984
1416 984
1417 984
1418 984
1419 984
1420 984
1421 984
1422 984
1423 984
1424 984
1425 984
1426 984
1427 984
1428 984
1429 984
1430 984
1431 984
1432 984
1433 984
1434 984
1435 984
1436 984
1437 984
1438 984
1439 984
1440 984
1441 984
1442 984
1443 984
1444 984
1445 984
1446 984
1447 984
1448 984
1449 984
1450 984
1451 984
1452 984
1453 984
1454 984
1455 984
1456 984
1457 984
1414 985
1415 985
1416 985
1417 985
1418 985
1419 985
1420 985
1421 985
1422 985
1423 985
1424 985
1425 985
1426 985
1427 985
1428 985
1429 985
1430 985
1431 985
1432 985
1433 985
1434 985
1435 985
1436 985
1437 985
1438 985
1439 985
1440 985
1441 985
1442 985
1443 985
1444 985
1445 985
1446 985
1447 985
1448 985
1449 985
1450 985
1451 985
1452 985
1453 985
1454 985
1455 985
1456 985
1457 985
1414 986
1415 986
1416 986
1417 986
1418 986
1419 986
1420 986
1421 986
1422 986
1423 986
1424 986
1425 986
1426 986
1427 986
1428 986
1429 986
1430 986
1431 986
1432 986
1433 986
1434 986
1435 986
1436 986
1437 986
1438 986
1439 986
1440 986
1441 986
1442 986
1443 986
1444 986
1445 986
1446 986
1447 986
1448 986
1449 986
1450 986
1451 986
1452 986
1453 986
1454 986
1455 986
1456 986
1457 986
1414 987
1415 987
1416 987
1417 987
1418 987
1419 987
1420 987
1421 987
1422 987
1423 987
1424 987
1425 987
1426 987
1427 987
1428 987
1429 987
1430 987
1431 987
1432 987
1433 987
1434 987
1435 987
1436 987
1437 987
1438 987
1439 987
1440 987
1441 987
1442 987
1443 987
1444 987
1445 987
1446 987
1447 987
1448 987
1449 987
1450 987
1451 987
1452 987
1453 987
1454 987
1455 987
1456 987
1457 987
1414 988
1415 988
1416 988
1417 988
1418 988
1419 988
1420 988
1421 988
1422 988
1423 988
1424 988
1425 988
1426 988
1427 988
1428 988
1429 988
1430 988
1431 988
1432 988
1433 988
1434 988
1435 988
1436 988
1437 988
1438 988
1439 988
1440 988
1441 988
1442 988
1443 988
1444 988
1445 988
1446 988
1447 988
1448 988
1449 988
1450 988
1451 988
1452 988
1453 988
1454 988
1455 988
1456 988
1457 988
1414 989
1415 989
1416 989
1417 989
1418 989
1419 989
1420 989
1421 989
1422 989
1423 989
1424 989
1425 989
1426 989
1427 989
1428 989
1429 989
1430 989
1431 989
1432 989
1433 989
1434 989
1435 989
1436 989
1437 989
1438 989
1439 989
1440 989
1441 989
1442 989
1443 989
1444 989
1445 989
1446 989
1447 989
1448 989
1449 989
1450 989
1451 989
1452 989
1453 989
1454 989
1455 989
1456 989
1457 989
1414 990
1415 990
1416 990
1417 990
1418 990
1419 990
1420 990
1421 990
1422 990
1423 990
1424 990
1425 990
1426 990
1427 990
1428 990
1429 990
1430 990
1431 990
1432 990
1433 990
1434 990
1435 990
1436 990
1437 990
1438 990
1439 990
1440 990
1441 990
1442 990
1443 990
1444 990
1445 990
1446 990
1447 990
1448 990
1449 990
1450 990
1451 990
1452 990
1453 990
1454 990
1455 990
1456 990
1457 990
1414 991
1415 991
1416 991
1417 991
1418 991
1419 991
1420 991
1421 991
1422 991
1423 991
1424 991
1425 991
1426 991
1427 991
1428 991
1429 991
1430 991
1431 991
1432 991
1433 991
1434 991
1435 991
1436 991
1437 991
1438 991
1439 991
1440 991
1441 991
1442 991
1443 991
1444 991
1445 991
1446 991
1447 991
1448 991
1449 991
1450 991
1451 991
1452 991
1453 991
1454 991
1455 991
1456 991
1457 991
1414 992
1415 992
1416 992
1417 992
1418 992
1419 992
1420 992
1421 992
1422 992
1423 992
1424 992
1425 992
1426 992
1427 992
1428 992
1429 992
1430 992
1431 992
1432 992
1433 992
1434 992
1435 992
1436 992
1437 992
1438 992
1439 992
1440 992
1441 992
1442 992
1443 992
1444 992
1445 992
1446 992
1447 992
1448 992
1449 992
1450 992
1451 992
1452 992
1453 992
1454 992
1455 992
1456 992
1457 992
1414 993
1415 993
1416 993
1417 993
1418 993
1419 993
1420 993
1421 993
1422 993
1423 993
1424 993
1425 993
1426 993
1427 993
1428 993
1429 993
1430 993
1431 993
1432 993
1433 993
1434 993
1435 993
1436 993
1437 993
1438 993
1439 993
1440 993
1441 993
1442 993
1443 993
1444 993
1445 993
1446 993
1447 993
1448 993
1449 993
1450 993
1451 993
1452 993
1453 993
1454 993
1455 993
1456 993
1457 993
1414 994
1415 994
1416 994
1417 994
1418 994
1419 994
1420 994
1421 994
1422 994
1423 994
1424 994
1425 994
1426 994
1427 994
1428 994
1429 994
1430 994
1431 994
1432 994
1433 994
1434 994
1435 994
1436 994
1437 994
1438 994
1439 994
1440 994
1441 994
1442 994
1443 994
1444 994
1445 994
1446 994
1447 994
1448 994
1449 994
1450 994
1451 994
1452 994
1453 994
1454 994
1455 994
1456 994
1457 994
1414 995
1415 995
1416 995
1417 995
1418 995
1419 995
1420 995
1421 995
1422 995
1423 995
1424 995
1425 995
1426 995
1427 995
1428 995
1429 995
1430 995
1431 995
1432 995
1433 995
1434 995
1435 995
1436 995
1437 995
1438 995
1439 995
1440 995
1441 995
1442 995
1443 995
1444 995
1445 995
1446 995
1447 995
1448 995
1449 995
1450 995
1451 995
1452 995
1453 995
1454 995
1455 995
1456 995
1457 995
1414 996
1415 996
1416 996
1417 996
1418 996
1419 996
1420 996
1421 996
1422 996
1423 996
1424 996
1425 996
1426 996
1427 996
1428 996
1429 996
1430 996
1431 996
1432 996
1433 996
1434 996
1435 996
1436 996
1437 996
1438 996
1439 996
1440 996
1441 996
1442 996
1443 996
1444 996
1445 996
1446 996
1447 996
1448 996
1449 996
1450 996
1451 996
1452 996
1453 996
1454 996
1455 996
1456 996
1457 996
1414 997
1415 997
1416 997
1417 997
1418 997
1419 997
1420 997
1421 997
1422 997
1423 997
1424 997
1425 997
1426 997
1427 997
1428 997
1429 997
1430 997
1431 997
1432 997
1433 997
1434 997
1435 997
1436 997
1437 997
1438 997
1439 997
1440 997
1441 997
1442 997
1443 997
1444 997
1445 997
1446 997
1447 997
1448 997
1449 997
1450 997
1451 997
1452 997
1453 997
1454 997
1455 997
1456 997
1457 997
1414 998
1415 998
1416 998
1417 998
1418 998
1419 998
1420 998
1421 998
1422 998
1423 998
1424 998
1425 998
1426 998
1427 998
1428 998
1429 998
1430 998
1431 998
1432 998
1433 998
1434 998
1435 998
1436 998
1437 998
1438 998
1439 998
1440 998
1441 998
1442 998
1443 998
1444 998
1445 998
1446 998
1447 998
1448 998
1449 998
1450 998
1451 998
1452 998
1453 998
1454 998
1455 998
1456 998
1457 998
1414 999
1415 999
1416 999
1417 999
1418 999
1419 999
1420 999
1421 999
1422 999
1423 999
1424 999
1425 999
1426 999
1427 999
1428 999
1429 999
1430 999
1431 999
1432 999
1433 999
1434 999
1435 999
1436 999
1437 999
1438 999
1439 999
1440 999
1441 999
1442 999
1443 999
1444 999
1445 999
1446 999
1447 999
1448 999
1449 999
1450 999
1451 999
1452 999
1453 999
1454 999
1455 999
1456 999
1457 999
1414 1000
1415 1000
1416 1000
1417 1000
1418 1000
1419 1000
1420 1000
1421 1000
1422 1000
1423 1000
1424 1000
1425 1000
1426 1000
1427 1000
1428 1000
1429 1000
1430 1000
1431 1000
1432 1000
1433 1000
1434 1000
1435 1000
1436 1000
1437 1000
1438 1000
1439 1000
1440 1000
1441 1000
1442 1000
1443 1000
1444 1000
1445 1000
1446 1000
1447 1000
1448 1000
1449 1000
1450 1000
1451 1000
1452 1000
1453 1000
1454 1000
1455 1000
1456 1000
1457 1000
1414 1001
1415 1001
1416 1001
1417 1001
1418 1001
1419 1001
1420 1001
1421 1001
1422 1001
1423 1001
1424 1001
1425 1001
1426 1001
1427 1001
1428 1001
1429 1001
1430 1001
1431 1001
1432 1001
1433 1001
1434 1001
1435 1001
1436 1001
1437 1001
1438 1001
1439 1001
1440 1001
1441 1001
1442 1001
1443 1001
1444 1001
1445 1001
1446 1001
1447 1001
1448 1001
1449 1001
1450 1001
1451 1001
1452 1001
1453 1001
1454 1001
1455 1001
1456 1001
1457 1001
1414 1002
1415 1002
1416 1002
1417 1002
1418 1002
1419 1002
1420 1002
1421 1002
1422 1002
1423 1002
1424 1002
1425 1002
1426 1002
1427 1002
1428 1002
1429 1002
1430 1002
1431 1002
1432 1002
1433 1002
1434 1002
1435 1002
1436 1002
1437 1002
1438 1002
1439 1002
1440 1002
1441 1002
1442 1002
1443 1002
1444 1002
1445 1002
1446 1002
1447 1002
1448 1002
1449 1002
1450 1002
1451 1002
1452 1002
1453 1002
1454 1002
1455 1002
1456 1002
1457 1002
1414 1003
1415 1003
1416 1003
1417 1003
1418 1003
1419 1003
1420 1003
1421 1003
1422 1003
1423 1003
1424 1003
1425 1003
1426 1003
1427 1003
1428 1003
1429 1003
1430 1003
1431 1003
1432 1003
1433 1003
1434 1003
1435 1003
1436 1003
1437 1003
1438 1003
1439 1003
1440 1003
1441 1003
1442 1003
1443 1003
1444 1003
1445 1003
1446 1003
1447 1003
1448 1003
1449 1003
1450 1003
1451 1003
1452 1003
1453 1003
1454 1003
1455 1003
1456 1003
1457 1003
1414 1004
1415 1004
1416 1004
1417 1004
1418 1004
1419 1004
1420 1004
1421 1004
1422 1004
1423 1004
1424 1004
1425 1004
1426 1004
1427 1004
1428 1004
1429 1004
1430 1004
1431 1004
1432 1004
1433 1004
1434 1004
1435 1004
1436 1004
1437 1004
1438 1004
1439 1004
1440 1004
1441 1004
1442 1004
1443 1004
1444 1004
1445 1004
1446 1004
1447 1004
1448 1004
1449 1004
1450 1004
1451 1004
1452 1004
1453 1004
1454 1004
1455 1004
1456 1004
1457 1004
1414 1005
1415 1005
1416 1005
1417 1005
1418 1005
1419 1005
1420 1005
1421 1005
1422 1005
1423 1005
1424 1005
1425 1005
1426 1005
1427 1005
1428 1005
1429 1005
1430 1005
1431 1005
1432 1005
1433 1005
1434 1005
1435 1005
1436 1005
1437 1005
1438 1005
1439 1005
1440 1005
1441 1005
1442 1005
1443 1005
1444 1005
1445 1005
1446 1005
1447 1005
1448 1005
1449 1005
1450 1005
1451 1005
1452 1005
1453 1005
1454 1005
1455 1005
1456 1005
1457 1005
1414 1006
1415 1006
1416 1006
1417 1006
1418 1006
1419 1006
1420 1006
1421 1006
1422 1006
1423 1006
1424 1006
1425 1006
1426 1006
1427 1006
1428 1006
1429 1006
1430 1006
1431 1006
1432 1006
1433 1006
1434 1006
1435 1006
1436 1006
1437 1006
1438 1006
1439 1006
1440 1006
1441 1006
1442 1006
1443 1006
1444 1006
1445 1006
1446 1006
1447 1006
1448 1006
1449 1006
1450 1006
1451 1006
1452 1006
1453 1006
1454 1006
1455 1006
1456 1006
1457 1006
1414 1007
1415 1007
1416 1007
1417 1007
1418 1007
1419 1007
1420 1007
1421 1007
1422 1007
1423 1007
1424 1007
1425 1007
1426 1007
1427 1007
1428 1007
1429 1007
1430 1007
1431 1007
1432 1007
1433 1007
1434 1007
1435 1007
1436 1007
1437 1007
1438 1007
1439 1007
1440 1007
1441 1007
1442 1007
1443 1007
1444 1007
1445 1007
1446 1007
1447 1007
1448 1007
1449 1007
1450 1007
1451 1007
1452 1007
1453 1007
1454 1007
1455 1007
1456 1007
1457 1007
1414 1008
1415 1008
1416 1008
1417 1008
1418 1008
1419 1008
1420 1008
1421 1008
1422 1008
1423 1008
1424 1008
1425 1008
1426 1008
1427 1008
1428 1008
1429 1008
1430 1008
1431 1008
1432 1008
1433 1008
1434 1008
1435 1008
1436 1008
1437 1008
1438 1008
1439 1008
1440 1008
1441 1008
1442 1008
1443 1008
1444 1008
1445 1008
1446 1008
1447 1008
1448 1008
1449 1008
1450 1008
1451 1008
1452 1008
1453 1008
1454 1008
1455 1008
1456 1008
1457 1008
1414 1009
1415 1009
1416 1009
1417 1009
1418 1009
1419 1009
1420 1009
1421 1009
1422 1009
1423 1009
1424 1009
1425 1009
1426 1009
1427 1009
1428 1009
1429 1009
1430 1009
1431 1009
1432 1009
1433 1009
1434 1009
1435 1009
1436 1009
1437 1009
1438 1009
1439 1009
1440 1009
1441 1009
1442 1009
1443 1009
1444 1009
1445 1009
1446 1009
1447 1009
1448 1009
1449 1009
1450 1009
1451 1009
1452 1009
1453 1009
1454 1009
1455 1009
1456 1009
1457 1009
1414 1010
1415 1010
1416 1010
1417 1010
1418 1010
1419 1010
1420 1010
1421 1010
1422 1010
1423 1010
1424 1010
1425 1010
1426 1010
1427 1010
1428 1010
1429 1010
1430 1010
1431 1010
1432 1010
1433 1010
1434 1010
1435 1010
1436 1010
1437 1010
1438 1010
1439 1010
1440 1010
1441 1010
1442 1010
1443 1010
1444 1010
1445 1010
1446 1010
1447 1010
1448 1010
1449 1010
1450 1010
1451 1010
1452 1010
1453 1010
1454 1010
1455 1010
1456 1010
1457 1010
1414 1011
1415 1011
1416 1011
1417 1011
1418 1011
1419 1011
1420 1011
1421 1011
1422 1011
1423 1011
1424 1011
1425 1011
1426 1011
1427 1011
1428 1011
1429 1011
1430 1011
1431 1011
1432 1011
1433 1011
1434 1011
1435 1011
1436 1011
1437 1011
1438 1011
1439 1011
1440 1011
1441 1011
1442 1011
1443 1011
1444 1011
1445 1011
1446 1011
1447 1011
1448 1011
1449 1011
1450 1011
1451 1011
1452 1011
1453 1011
1454 1011
1455 1011
1456 1011
1457 1011
1414 1012
1415 1012
1416 1012
1417 1012
1418 1012
1419 1012
1420 1012
1421 1012
1422 1012
1423 1012
1424 1012
1425 1012
1426 1012
1427 1012
1428 1012
1429 1012
1430 1012
1431 1012
1432 1012
1433 1012
1434 1012
1435 1012
1436 1012
1437 1012
1438 1012
1439 1012
1440 1012
1441 1012
1442 1012
1443 1012
1444 1012
1445 1012
1446 1012
1447 1012
1448 1012
1449 1012
1450 1012
1451 1012
1452 1012
1453 1012
1454 1012
1455 1012
1456 1012
1457 1012
1414 1013
1415 1013
1416 1013
1417 1013
1418 1013
1419 1013
1420 1013
1421 1013
1422 1013
1423 1013
1424 1013
1425 1013
1426 1013
1427 1013
1428 1013
1429 1013
1430 1013
1431 1013
1432 1013
1433 1013
1434 1013
1435 1013
1436 1013
1437 1013
1438 1013
1439 1013
1440 1013
1441 1013
1442 1013
1443 1013
1444 1013
1445 1013
1446 1013
1447 1013
1448 1013
1449 1013
1450 1013
1451 1013
1452 1013
1453 1013
1454 1013
1455 1013
1456 1013
1457 1013
1414 1014
1415 1014
1416 1014
1417 1014
1418 1014
1419 1014
1420 1014
1421 1014
1422 1014
1423 1014
1424 1014
1425 1014
1426 1014
1427 1014
1428 1014
1429 1014
1430 1014
1431 1014
1432 1014
1433 1014
1434 1014
1435 1014
1436 1014
1437 1014
1438 1014
1439 1014
1440 1014
1441 1014
1442 1014
1443 1014
1444 1014
1445 1014
1446 1014
1447 1014
1448 1014
1449 1014
1450 1014
1451 1014
1452 1014
1453 1014
1454 1014
1455 1014
1456 1014
1457 1014
1414 1015
1415 1015
1416 1015
1417 1015
1418 1015
1419 1015
1420 1015
1421 1015
1422 1015
1423 1015
1424 1015
1425 1015
1426 1015
1427 1015
1428 1015
1429 1015
1430 1015
1431 1015
1432 1015
1433 1015
1434 1015
1435 1015
1436 1015
1437 1015
1438 1015
1439 1015
1440 1015
1441 1015
1442 1015
1443 1015
1444 1015
1445 1015
1446 1015
1447 1015
1448 1015
1449 1015
1450 1015
1451 1015
1452 1015
1453 1015
1454 1015
1455 1015
1456 1015
1457 1015
1414 1016
1415 1016
1416 1016
1417 1016
1418 1016
1419 1016
1420 1016
1421 1016
1422 1016
1423 1016
1424 1016
1425 1016
1426 1016
1427 1016
1428 1016
1429 1016
1430 1016
1431 1016
1432 1016
1433 1016
1434 1016
1435 1016
1436 1016
1437 1016
1438 1016
1439 1016
1440 1016
1441 1016
1442 1016
1443 1016
1444 1016
1445 1016
1446 1016
1447 1016
1448 1016
1449 1016
1450 1016
1451 1016
1452 1016
1453 1016
1454 1016
1455 1016
1456 1016
1457 1016
1414 1017
1415 1017
1416 1017
1417 1017
1418 1017
1419 1017
1420 1017
1421 1017
1422 1017
1423 1017
1424 1017
1425 1017
1426 1017
1427 1017
1428 1017
1429 1017
1430 1017
1431 1017
1432 1017
1433 1017
1434 1017
1435 1017
1436 1017
1437 1017
1438 1017
1439 1017
1440 1017
1441 1017
1442 1017
1443 1017
1444 1017
1445 1017
1446 1017
1447 1017
1448 1017
1449 1017
1450 1017
1451 1017
1452 1017
1453 1017
1454 1017
1455 1017
1456 1017
1457 1017
1414 1018
1415 1018
1416 1018
1417 1018
1418 1018
1419 1018
1420 1018
1421 1018
1422 1018
1423 1018
1424 1018
1425 1018
1426 1018
1427 1018
1428 1018
1429 1018
1430 1018
1431 1018
1432 1018
1433 1018
1434 1018
1435 1018
1436 1018
1437 1018
1438 1018
1439 1018
1440 1018
1441 1018
1442 1018
1443 1018
1444 1018
1445 1018
1446 1018
1447 1018
1448 1018
1449 1018
1450 1018
1451 1018
1452 1018
1453 1018
1454 1018
1455 1018
1456 1018
1457 1018
1414 1019
1415 1019
1416 1019
1417 1019
1418 1019
1419 1019
1420 1019
1421 1019
1422 1019
1423 1019
1424 1019
1425 1019
1426 1019
1427 1019
1428 1019
1429 1019
1430 1019
1431 1019
1432 1019
1433 1019
1434 1019
1435 1019
1436 1019
1437 1019
1438 1019
1439 1019
1440 1019
1441 1019
1442 1019
1443 1019
1444 1019
1445 1019
1446 1019
1447 1019
1448 1019
1449 1019
1450 1019
1451 1019
1452 1019
1453 1019
1454 1019
1455 1019
1456 1019
1457 1019
1414 1020
1415 1020
1416 1020
1417 1020
1418 1020
1419 1020
1420 1020
1421 1020
1422 1020
1423 1020
1424 1020
1425 1020
1426 1020
1427 1020
1428 1020
1429 1020
1430 1020
1431 1020
1432 1020
1433 1020
1434 1020
1435 1020
1436 1020
1437 1020
1438 1020
1439 1020
1440 1020
1441 1020
1442 1020
1443 1020
1444 1020
1445 1020
1446 1020
1447 1020
1448 1020
1449 1020
1450 1020
1451 1020
1452 1020
1453 1020
1454 1020
1455 1020
1456 1020
1457 1020
1534 1065
1535 1065
1536 1065
1537 1065
1538 1065
1539 1065
1540 1065
1541 1065
1542 1065
1543 1065
1544 1065
1545 1065
1546 1065
1547 1065
1548 1065
1549 1065
1550 1065
1551 1065
1552 1065
1553 1065
1554 1065
1555 1065
1556 1065
1557 1065
1558 1065
1559 1065
1560 1065
1561 1065
1562 1065
1563 1065
1564 1065
1565 1065
1566 1065
1567 1065
1568 1065
1569 1065
1570 1065
1571 1065
1572 1065
1573 1065
1574 1065
1575 1065
1576 1065
1577 1065
1534 1066
1535 1066
1536 1066
1537 1066
1538 1066
1539 1066
1540 1066
1541 1066
1542 1066
1543 1066
1544 1066
1545 1066
1546 1066
1547 1066
1548 1066
1549 1066
1550 1066
1551 1066
1552 1066
1553 1066
1554 1066
1555 1066
1556 1066
1557 1066
1558 1066
1559 1066
1560 1066
1561 1066
1562 1066
1563 1066
1564 1066
1565 1066
1566 1066
1567 1066
1568 1066
1569 1066
1570 1066
1571 1066
1572 1066
1573 1066
1574 1066
1575 1066
1576 1066
1577 1066
1534 1067
1535 1067
1536 1067
1537 1067
1538 1067
1539 1067
1540 1067
1541 1067
1542 1067
1543 1067
1544 1067
1545 1067
1546 1067
1547 1067
1548 1067
1549 1067
1550 1067
1551 1067
1552 1067
1553 1067
1554 1067
1555 1067
1556 1067
1557 1067
1558 1067
1559 1067
1560 1067
1561 1067
1562 1067
1563 1067
1564 1067
1565 1067
1566 1067
1567 1067
1568 1067
1569 1067
1570 1067
1571 1067
1572 1067
1573 1067
1574 1067
1575 1067
1576 1067
1577 1067
1534 1068
1535 1068
1536 1068
1537 1068
1538 1068
1539 1068
1540 1068
1541 1068
1542 1068
1543 1068
1544 1068
1545 1068
1546 1068
1547 1068
1548 1068
1549 1068
1550 1068
1551 1068
1552 1068
1553 1068
1554 1068
1555 1068
1556 1068
1557 1068
1558 1068
1559 1068
1560 1068
1561 1068
1562 1068
1563 1068
1564 1068
1565 1068
1566 1068
1567 1068
1568 1068
1569 1068
1570 1068
1571 1068
1572 1068
1573 1068
1574 1068
1575 1068
1576 1068
1577 1068
1534 1069
1535 1069
1536 1069
1537 1069
1538 1069
1539 1069
1540 1069
1541 1069
1542 1069
1543 1069
1544 1069
1545 1069
1546 1069
1547 1069
1548 1069
1549 1069
1550 1069
1551 1069
1552 1069
1553 1069
1554 1069
1555 1069
1556 1069
1557 1069
1558 1069
1559 1069
1560 1069
1561 1069
1562 1069
1563 1069
1564 1069
1565 1069
1566 1069
1567 1069
1568 1069
1569 1069
1570 1069
1571 1069
1572 1069
1573 1069
1574 1069
1575 1069
1576 1069
1577 1069
1534 1070
1535 1070
1536 1070
1537 1070
1538 1070
1539 1070
1540 1070
1541 1070
1542 1070
1543 1070
1544 1070
1545 1070
1546 1070
1547 1070
1548 1070
1549 1070
1550 1070
1551 1070
1552 1070
1553 1070
1554 1070
1555 1070
1556 1070
1557 1070
1558 1070
1559 1070
1560 1070
1561 1070
1562 1070
1563 1070
1564 1070
1565 1070
1566 1070
1567 1070
1568 1070
1569 1070
1570 1070
1571 1070
1572 1070
1573 1070
1574 1070
1575 1070
1576 1070
1577 1070
1534 1071
1535 1071
1536 1071
1537 1071
1538 1071
1539 1071
1540 1071
1541 1071
1542 1071
1543 1071
1544 1071
1545 1071
1546 1071
1547 1071
1548 1071
1549 1071
1550 1071
1551 1071
1552 1071
1553 1071
1554 1071
1555 1071
1556 1071
1557 1071
1558 1071
1559 1071
1560 1071
1561 1071
1562 1071
1563 1071
1564 1071
1565 1071
1566 1071
1567 1071
1568 1071
1569 1071
1570 1071
1571 1071
1572 1071
1573 1071
1574 1071
1575 1071
1576 1071
1577 1071
1534 1072
1535 1072
1536 1072
1537 1072
1538 1072
1539 1072
1540 1072
1541 1072
1542 1072
1543 1072
1544 1072
1545 1072
1546 1072
1547 1072
1548 1072
1549 1072
1550 1072
1551 1072
1552 1072
1553 1072
1554 1072
1555 1072
1556 1072
1557 1072
1558 1072
1559 1072
1560 1072
1561 1072
1562 1072
1563 1072
1564 1072
1565 1072
1566 1072
1567 1072
1568 1072
1569 1072
1570 1072
1571 1072
1572 1072
1573 1072
1574 1072
1575 1072
1576 1072
1577 1072
1534 1073
1535 1073
1536 1073
1537 1073
1538 1073
1539 1073
1540 1073
1541 1073
1542 1073
1543 1073
1544 1073
1545 1073
1546 1073
1547 1073
1548 1073
1549 1073
1550 1073
1551 1073
1552 1073
1553 1073
1554 1073
1555 1073
1556 1073
1557 1073
1558 1073
1559 1073
1560 1073
1561 1073
1562 1073
1563 1073
1564 1073
1565 1073
1566 1073
1567 1073
1568 1073
1569 1073
1570 1073
1571 1073
1572 1073
1573 1073
1574 1073
1575 1073
1576 1073
1577 1073
1534 1074
1535 1074
1536 1074
1537 1074
1538 1074
1539 1074
1540 1074
1541 1074
1542 1074
1543 1074
1544 1074
1545 1074
1546 1074
1547 1074
1548 1074
1549 1074
1550 1074
1551 1074
1552 1074
1553 1074
1554 1074
1555 1074
1556 1074
1557 1074
1558 1074
1559 1074
1560 1074
1561 1074
1562 1074
1563 1074
1564 1074
1565 1074
1566 1074
1567 1074
1568 1074
1569 1074
1570 1074
1571 1074
1572 1074
1573 1074
1574 1074
1575 1074
1576 1074
1577 1074
1534 1075
1535 1075
1536 1075
1537 1075
1538 1075
1539 1075
1540 1075
1541 1075
1542 1075
1543 1075
1544 1075
1545 1075
1546 1075
1547 1075
1548 1075
1549 1075
1550 1075
1551 1075
1552 1075
1553 1075
1554 1075
1555 1075
1556 1075
1557 1075
1558 1075
1559 1075
1560 1075
1561 1075
1562 1075
1563 1075
1564 1075
1565 1075
1566 1075
1567 1075
1568 1075
1569 1075
1570 1075
1571 1075
1572 1075
1573 1075
1574 1075
1575 1075
1576 1075
1577 1075
1534 1076
1535 1076
1536 1076
1537 1076
1538 1076
1539 1076
1540 1076
1541 1076
1542 1076
1543 1076
1544 1076
1545 1076
1546 1076
1547 1076
1548 1076
1549 1076
1550 1076
1551 1076
1552 1076
1553 1076
1554 1076
1555 1076
1556 1076
1557 1076
1558 1076
1559 1076
1560 1076
1561 1076
1562 1076
1563 1076
1564 1076
1565 1076
1566 1076
1567 1076
1568 1076
1569 1076
1570 1076
1571 1076
1572 1076
1573 1076
1574 1076
1575 1076
1576 1076
1577 1076
1534 1077
1535 1077
1536 1077
1537 1077
1538 1077
1539 1077
1540 1077
1541 1077
1542 1077
1543 1077
1544 1077
1545 1077
1546 1077
1547 1077
1548 1077
1549 1077
1550 1077
1551 1077
1552 1077
1553 1077
1554 1077
1555 1077
1556 1077
1557 1077
1558 1077
1559 1077
1560 1077
1561 1077
1562 1077
1563 1077
1564 1077
1565 1077
1566 1077
1567 1077
1568 1077
1569 1077
1570 1077
1571 1077
1572 1077
1573 1077
1574 1077
1575 1077
1576 1077
1577 1077
1534 1078
1535 1078
1536 1078
1537 1078
1538 1078
1539 1078
1540 1078
1541 1078
1542 1078
1543 1078
1544 1078
1545 1078
1546 1078
1547 1078
1548 1078
1549 1078
1550 1078
1551 1078
1552 1078
1553 1078
1554 1078
1555 1078
1556 1078
1557 1078
1558 1078
1559 1078
1560 1078
1561 1078
1562 1078
1563 1078
1564 1078
1565 1078
1566 1078
1567 1078
1568 1078
1569 1078
1570 1078
1571 1078
1572 1078
1573 1078
1574 1078
1575 1078
1576 1078
1577 1078
1534 1079
1535 1079
1536 1079
1537 1079
1538 1079
1539 1079
1540 1079
1541 1079
1542 1079
1543 1079
1544 1079
1545 1079
1546 1079
1547 1079
1548 1079
1549 1079
1550 1079
1551 1079
1552 1079
1553 1079
1554 1079
1555 1079
1556 1079
1557 1079
1558 1079
1559 1079
1560 1079
1561 1079
1562 1079
1563 1079
1564 1079
1565 1079
1566 1079
1567 1079
1568 1079
1569 1079
1570 1079
1571 1079
1572 1079
1573 1079
1574 1079
1575 1079
1576 1079
1577 1079
1534 1080
1535 1080
1536 1080
1537 1080
1538 1080
1539 1080
1540 1080
1541 1080
1542 1080
1543 1080
1544 1080
1545 1080
1546 1080
1547 1080
1548 1080
1549 1080
1550 1080
1551 1080
1552 1080
1553 1080
1554 1080
1555 1080
1556 1080
1557 1080
1558 1080
1559 1080
1560 1080
1561 1080
1562 1080
1563 1080
1564 1080
1565 1080
1566 1080
1567 1080
1568 1080
1569 1080
1570 1080
1571 1080
1572 1080
1573 1080
1574 1080
1575 1080
1576 1080
1577 1080
1534 1081
1535 1081
1536 1081
1537 1081
1538 1081
1539 1081
1540 1081
1541 1081
1542 1081
1543 1081
1544 1081
1545 1081
1546 1081
1547 1081
1548 1081
1549 1081
1550 1081
1551 1081
1552 1081
1553 1081
1554 1081
1555 1081
1556 1081
1557 1081
1558 1081
1559 1081
1560 1081
1561 1081
1562 1081
1563 1081
1564 1081
1565 1081
1566 1081
1567 1081
1568 1081
1569 1081
1570 1081
1571 1081
1572 1081
1573 1081
1574 1081
1575 1081
1576 1081
1577 1081
1534 1082
1535 1082
1536 1082
1537 1082
1538 1082
1539 1082
1540 1082
1541 1082
1542 1082
1543 1082
1544 1082
1545 1082
1546 1082
1547 1082
1548 1082
1549 1082
1550 1082
1551 1082
1552 1082
1553 1082
1554 1082
1555 1082
1556 1082
1557 1082
1558 1082
1559 1082
1560 1082
1561 1082
1562 1082
1563 1082
1564 1082
1565 1082
1566 1082
1567 1082
1568 1082
1569 1082
1570 1082
1571 1082
1572 1082
1573 1082
1574 1082
1575 1082
1576 1082
1577 1082
1534 1083
1535 1083
1536 1083
1537 1083
1538 1083
1539 1083
1540 1083
1541 1083
1542 1083
1543 1083
1544 1083
1545 1083
1546 1083
1547 1083
1548 1083
1549 1083
1550 1083
1551 1083
1552 1083
1553 1083
1554 1083
1555 1083
1556 1083
1557 1083
1558 1083
1559 1083
1560 1083
1561 1083
1562 1083
1563 1083
1564 1083
1565 1083
1566 1083
1567 1083
1568 1083
1569 1083
1570 1083
1571 1083
1572 1083
1573 1083
1574 1083
1575 1083
1576 1083
1577 1083
1534 1084
1535 1084
1536 1084
1537 1084
1538 1084
1539 1084
1540 1084
1541 1084
1542 1084
1543 1084
1544 1084
1545 1084
1546 1084
1547 1084
1548 1084
1549 1084
1550 1084
1551 1084
1552 1084
1553 1084
1554 1084
1555 1084
1556 1084
1557 1084
1558 1084
1559 1084
1560 1084
1561 1084
1562 1084
1563 1084
1564 1084
1565 1084
1566 1084
1567 1084
1568 1084
1569 1084
1570 1084
1571 1084
1572 1084
1573 1084
1574 1084
1575 1084
1576 1084
1577 1084
1534 1085
1535 1085
1536 1085
1537 1085
1538 1085
1539 1085
1540 1085
1541 1085
1542 1085
1543 1085
1544 1085
1545 1085
1546 1085
1547 1085
1548 1085
1549 1085
1550 1085
1551 1085
1552 1085
1553 1085
1554 1085
1555 1085
1556 1085
1557 1085
1558 1085
1559 1085
1560 1085
1561 1085
1562 1085
1563 1085
1564 1085
1565 1085
1566 1085
1567 1085
1568 1085
1569 1085
1570 1085
1571 1085
1572 1085
1573 1085
1574 1085
1575 1085
1576 1085
1577 1085
1534 1086
1535 1086
1536 1086
1537 1086
1538 1086
1539 1086
1540 1086
1541 1086
1542 1086
1543 1086
1544 1086
1545 1086
1546 1086
1547 1086
1548 1086
1549 1086
1550 1086
1551 1086
1552 1086
1553 1086
1554 1086
1555 1086
1556 1086
1557 1086
1558 1086
1559 1086
1560 1086
1561 1086
1562 1086
1563 1086
1564 1086
1565 1086
1566 1086
1567 1086
1568 1086
1569 1086
1570 1086
1571 1086
1572 1086
1573 1086
1574 1086
1575 1086
1576 1086
1577 1086
1534 1087
1535 1087
1536 1087
1537 1087
1538 1087
1539 1087
1540 1087
1541 1087
1542 1087
1543 1087
1544 1087
1545 1087
1546 1087
1547 1087
1548 1087
1549 1087
1550 1087
1551 1087
1552 1087
1553 1087
1554 1087
1555 1087
1556 1087
1557 1087
1558 1087
1559 1087
1560 1087
1561 1087
1562 1087
1563 1087
1564 1087
1565 1087
1566 1087
1567 1087
1568 1087
1569 1087
1570 1087
1571 1087
1572 1087
1573 1087
1574 1087
1575 1087
1576 1087
1577 1087
1534 1088
1535 1088
1536 1088
1537 1088
1538 1088
1539 1088
1540 1088
1541 1088
1542 1088
1543 1088
1544 1088
1545 1088
1546 1088
1547 1088
1548 1088
1549 1088
1550 1088
1551 1088
1552 1088
1553 1088
1554 1088
1555 1088
1556 1088
1557 1088
1558 1088
1559 1088
1560 1088
1561 1088
1562 1088
1563 1088
1564 1088
1565 1088
1566 1088
1567 1088
1568 1088
1569 1088
1570 1088
1571 1088
1572 1088
1573 1088
1574 1088
1575 1088
1576 1088
1577 1088
1534 1089
1535 1089
1536 1089
1537 1089
1538 1089
1539 1089
1540 1089
1541 1089
1542 1089
1543 1089
1544 1089
1545 1089
1546 1089
1547 1089
1548 1089
1549 1089
1550 1089
1551 1089
1552 1089
1553 1089
1554 1089
1555 1089
1556 1089
1557 1089
1558 1089
1559 1089
1560 1089
1561 1089
1562 1089
1563 1089
1564 1089
1565 1089
1566 1089
1567 1089
1568 1089
1569 1089
1570 1089
1571 1089
1572 1089
1573 1089
1574 1089
1575 1089
1576 1089
1577 1089
1534 1090
1535 1090
1536 1090
1537 1090
1538 1090
1539 1090
1540 1090
1541 1090
1542 1090
1543 1090
1544 1090
1545 1090
1546 1090
1547 1090
1548 1090
1549 1090
1550 1090
1551 1090
1552 1090
1553 1090
1554 1090
1555 1090
1556 1090
1557 1090
1558 1090
1559 1090
1560 1090
1561 1090
1562 1090
1563 1090
1564 1090
1565 1090
1566 1090
1567 1090
1568 1090
1569 1090
1570 1090
1571 1090
1572 1090
1573 1090
1574 1090
1575 1090
1576 1090
1577 1090
1534 1091
1535 1091
1536 1091
1537 1091
1538 1091
1539 1091
1540 1091
1541 1091
1542 1091
1543 1091
1544 1091
1545 1091
1546 1091
1547 1091
1548 1091
1549 1091
1550 1091
1551 1091
1552 1091
1553 1091
1554 1091
1555 1091
1556 1091
1557 1091
1558 1091
1559 1091
1560 1091
1561 1091
1562 1091
1563 1091
1564 1091
1565 1091
1566 1091
1567 1091
1568 1091
1569 1091
1570 1091
1571 1091
1572 1091
1573 1091
1574 1091
1575 1091
1576 1091
1577 1091
1534 1092
1535 1092
1536 1092
1537 1092
1538 1092
1539 1092
1540 1092
1541 1092
1542 1092
1543 1092
1544 1092
1545 1092
1546 1092
1547 1092
1548 1092
1549 1092
1550 1092
1551 1092
1552 1092
1553 1092
1554 1092
1555 1092
1556 1092
1557 1092
1558 1092
1559 1092
1560 1092
1561 1092
1562 1092
1563 1092
1564 1092
1565 1092
1566 1092
1567 1092
1568 1092
1569 1092
1570 1092
1571 1092
1572 1092
1573 1092
1574 1092
1575 1092
1576 1092
1577 1092
1534 1093
1535 1093
1536 1093
1537 1093
1538 1093
1539 1093
1540 1093
1541 1093
1542 1093
1543 1093
1544 1093
1545 1093
1546 1093
1547 1093
1548 1093
1549 1093
1550 1093
1551 1093
1552 1093
1553 1093
1554 1093
1555 1093
1556 1093
1557 1093
1558 1093
1559 1093
1560 1093
1561 1093
1562 1093
1563 1093
1564 1093
1565 1093
1566 1093
1567 1093
1568 1093
1569 1093
1570 1093
1571 1093
1572 1093
1573 1093
1574 1093
1575 1093
1576 1093
1577 1093
1534 1094
1535 1094
1536 1094
1537 1094
1538 1094
1539 1094
1540 1094
1541 1094
1542 1094
1543 1094
1544 1094
1545 1094
1546 1094
1547 1094
1548 1094
1549 1094
1550 1094
1551 1094
1552 1094
1553 1094
1554 1094
1555 1094
1556 1094
1557 1094
1558 1094
1559 1094
1560 1094
1561 1094
1562 1094
1563 1094
1564 1094
1565 1094
1566 1094
1567 1094
1568 1094
1569 1094
1570 1094
1571 1094
1572 1094
1573 1094
1574 1094
1575 1094
1576 1094
1577 1094
1534 1095
1535 1095
1536 1095
1537 1095
1538 1095
1539 1095
1540 1095
1541 1095
1542 1095
1543 1095
1544 1095
1545 1095
1546 1095
1547 1095
1548 1095
1549 1095
1550 1095
1551 1095
1552 1095
1553 1095
1554 1095
1555 1095
1556 1095
1557 1095
1558 1095
1559 1095
1560 1095
1561 1095
1562 1095
1563 1095
1564 1095
1565 1095
1566 1095
1567 1095
1568 1095
1569 1095
1570 1095
1571 1095
1572 1095
1573 1095
1574 1095
1575 1095
1576 1095
1577 1095
1534 1096
1535 1096
1536 1096
1537 1096
1538 1096
1539 1096
1540 1096
1541 1096
1542 1096
1543 1096
1544 1096
1545 1096
1546 1096
1547 1096
1548 1096
1549 1096
1550 1096
1551 1096
1552 1096
1553 1096
1554 1096
1555 1096
1556 1096
1557 1096
1558 1096
1559 1096
1560 1096
1561 1096
1562 1096
1563 1096
1564 1096
1565 1096
1566 1096
1567 1096
1568 1096
1569 1096
1570 1096
1571 1096
1572 1096
1573 1096
1574 1096
1575 1096
1576 1096
1577 1096
1534 1097
1535 1097
1536 1097
1537 1097
1538 1097
1539 1097
1540 1097
1541 1097
1542 1097
1543 1097
1544 1097
1545 1097
1546 1097
1547 1097
1548 1097
1549 1097
1550 1097
1551 1097
1552 1097
1553 1097
1554 1097
1555 1097
1556 1097
1557 1097
1558 1097
1559 1097
1560 1097
1561 1097
1562 1097
1563 1097
1564 1097
1565 1097
1566 1097
1567 1097
1568 1097
1569 1097
1570 1097
1571 1097
1572 1097
1573 1097
1574 1097
1575 1097
1576 1097
1577 1097
1534 1098
1535 1098
1536 1098
1537 1098
1538 1098
1539 1098
1540 1098
1541 1098
1542 1098
1543 1098
1544 1098
1545 1098
1546 1098
1547 1098
1548 1098
1549 1098
1550 1098
1551 1098
1552 1098
1553 1098
1554 1098
1555 1098
1556 1098
1557 1098
1558 1098
1559 1098
1560 1098
1561 1098
1562 1098
1563 1098
1564 1098
1565 1098
1566 1098
1567 1098
1568 1098
1569 1098
1570 1098
1571 1098
1572 1098
1573 1098
1574 1098
1575 1098
1576 1098
1577 1098
1534 1099
1535 1099
1536 1099
1537 1099
1538 1099
1539 1099
1540 1099
1541 1099
1542 1099
1543 1099
1544 1099
1545 1099
1546 1099
1547 1099
1548 1099
1549 1099
1550 1099
1551 1099
1552 1099
1553 1099
1554 1099
1555 1099
1556 1099
1557 1099
1558 1099
1559 1099
1560 1099
1561 1099
1562 1099
1563 1099
1564 1099
1565 1099
1566 1099
1567 1099
1568 1099
1569 1099
1570 1099
1571 1099
1572 1099
1573 1099
1574 1099
1575 1099
1576 1099
1577 1099
1534 1100
1535 1100
1536 1100
1537 1100
1538 1100
1539 1100
1540 1100
1541 1100
1542 1100
1543 1100
1544 1100
1545 1100
1546 1100
1547 1100
1548 1100
1549 1100
1550 1100
1551 1100
1552 1100
1553 1100
1554 1100
1555 1100
1556 1100
1557 1100
1558 1100
1559 1100
1560 1100
1561 1100
1562 1100
1563 1100
1564 1100
1565 1100
1566 1100
1567 1100
1568 1100
1569 1100
1570 1100
1571 1100
1572 1100
1573 1100
1574 1100
1575 1100
1576 1100
1577 1100
1534 1101
1535 1101
1536 1101
1537 1101
1538 1101
1539 1101
1540 1101
1541 1101
1542 1101
1543 1101
1544 1101
1545 1101
1546 1101
1547 1101
1548 1101
1549 1101
1550 1101
1551 1101
1552 1101
1553 1101
1554 1101
1555 1101
1556 1101
1557 1101
1558 1101
1559 1101
1560 1101
1561 1101
1562 1101
1563 1101
1564 1101
1565 1101
1566 1101
1567 1101
1568 1101
1569 1101
1570 1101
1571 1101
1572 1101
1573 1101
1574 1101
1575 1101
1576 1101
1577 1101
1654 1146
1655 1146
1656 1146
1657 1146
1658 1146
1659 1146
1660 1146
1661 1146
1662 1146
1663 1146
1664 1146
1665 1146
1666 1146
1667 1146
1668 1146
1669 1146
1670 1146
1671 1146
1672 1146
1673 1146
1674 1146
1675 1146
1676 1146
1677 1146
1678 1146
1679 1146
1680 1146
1681 1146
1682 1146
1683 1146
1684 1146
1685 1146
1686 1146
1687 1146
1688 1146
1689 1146
1690 1146
1691 1146
1692 1146
1693 1146
1694 1146
1695 1146
1696 1146
1697 1146
1654 1147
1655 1147
1656 1147
1657 1147
1658 1147
1659 1147
1660 1147
1661 1147
1662 1147
1663 1147
1664 1147
1665 1147
1666 1147
1667 1147
1668 1147
1669 1147
1670 1147
1671 1147
1672 1147
1673 1147
1674 1147
1675 1147
1676 1147
1677 1147
1678 1147
1679 1147
1680 1147
1681 1147
1682 1147
1683 1147
1684 1147
1685 1147
1686 1147
1687 1147
1688 1147
1689 1147
1690 1147
1691 1147
1692 1147
1693 1147
1694 1147
1695 1147
1696 1147
1697 1147
1654 1148
1655 1148
1656 1148
1657 1148
1658 1148
1659 1148
1660 1148
1661 1148
1662 1148
1663 1148
1664 1148
1665 1148
1666 1148
1667 1148
1668 1148
1669 1148
1670 1148
1671 1148
1672 1148
1673 1148
1674 1148
1675 1148
1676 1148
1677 1148
1678 1148
1679 1148
1680 1148
1681 1148
1682 1148
1683 1148
1684 1148
1685 1148
1686 1148
1687 1148
1688 1148
1689 1148
1690 1148
1691 1148
1692 1148
1693 1148
1694 1148
1695 1148
1696 1148
1697 1148
1654 1149
1655 1149
1656 1149
1657 1149
1658 1149
1659 1149
1660 1149
1661 1149
1662 1149
1663 1149
1664 1149
1665 1149
1666 1149
1667 1149
1668 1149
1669 1149
1670 1149
1671 1149
1672 1149
1673 1149
1674 1149
1675 1149
1676 1149
1677 1149
1678 1149
1679 1149
1680 1149
1681 1149
1682 1149
1683 1149
1684 1149
1685 1149
1686 1149
1687 1149
1688 1149
1689 1149
1690 1149
1691 1149
1692 1149
1693 1149
1694 1149
1695 1149
1696 1149
1697 1149
1654 1150
1655 1150
1656 1150
1657 1150
1658 1150
1659 1150
1660 1150
1661 1150
1662 1150
1663 1150
1664 1150
1665 1150
1666 1150
1667 1150
1668 1150
1669 1150
1670 1150
1671 1150
1672 1150
1673 1150
1674 1150
1675 1150
1676 1150
1677 1150
1678 1150
1679 1150
1680 1150
1681 1150
1682 1150
1683 1150
1684 1150
1685 1150
1686 1150
1687 1150
1688 1150
1689 1150
1690 1150
1691 1150
1692 1150
1693 1150
1694 1150
1695 1150
1696 1150
1697 1150
1654 1151
1655 1151
1656 1151
1657 1151
1658 1151
1659 1151
1660 1151
1661 1151
1662 1151
1663 1151
1664 1151
1665 1151
1666 1151
1667 1151
1668 1151
1669 1151
1670 1151
1671 1151
1672 1151
1673 1151
1674 1151
1675 1151
1676 1151
1677 1151
1678 1151
1679 1151
1680 1151
1681 1151
1682 1151
1683 1151
1684 1151
1685 1151
1686 1151
1687 1151
1688 1151
1689 1151
1690 1151
1691 1151
1692 1151
1693 1151
1694 1151
1695 1151
1696 1151
1697 1151
1654 1152
1655 1152
1656 1152
1657 1152
1658 1152
1659 1152
1660 1152
1661 1152
1662 1152
1663 1152
1664 1152
1665 1152
1666 1152
1667 1152
1668 1152
1669 1152
1670 1152
1671 1152
1672 1152
1673 1152
1674 1152
1675 1152
1676 1152
1677 1152
1678 1152
1679 1152
1680 1152
1681 1152
1682 1152
1683 1152
1684 1152
1685 1152
1686 1152
1687 1152
1688 1152
1689 1152
1690 1152
1691 1152
1692 1152
1693 1152
1694 1152
1695 1152
1696 1152
1697 1152
1654 1153
1655 1153
1656 1153
1657 1153
1658 1153
1659 1153
1660 1153
1661 1153
1662 1153
1663 1153
1664 1153
1665 1153
1666 1153
1667 1153
1668 1153
1669 1153
1670 1153
1671 1153
1672 1153
1673 1153
1674 1153
1675 1153
1676 1153
1677 1153
1678 1153
1679 1153
1680 1153
1681 1153
1682 1153
1683 1153
1684 1153
1685 1153
1686 1153
1687 1153
1688 1153
1689 1153
1690 1153
1691 1153
1692 1153
1693 1153
1694 1153
1695 1153
1696 1153
1697 1153
1654 1154
1655 1154
1656 1154
1657 1154
1658 1154
1659 1154
1660 1154
1661 1154
1662 1154
1663 1154
1664 1154
1665 1154
1666 1154
1667 1154
1668 1154
1669 1154
1670 1154
1671 1154
1672 1154
1673 1154
1674 1154
1675 1154
1676 1154
1677 1154
1678 1154
1679 1154
1680 1154
1681 1154
1682 1154
1683 1154
1684 1154
1685 1154
1686 1154
1687 1154
1688 1154
1689 1154
1690 1154
1691 1154
1692 1154
1693 1154
1694 1154
1695 1154
1696 1154
1697 1154
1654 1155
1655 1155
1656 1155
1657 1155
1658 1155
1659 1155
1660 1155
1661 1155
1662 1155
1663 1155
1664 1155
1665 1155
1666 1155
1667 1155
1668 1155
1669 1155
1670 1155
1671 1155
1672 1155
1673 1155
1674 1155
1675 1155
1676 1155
1677 1155
1678 1155
1679 1155
1680 1155
1681 1155
1682 1155
1683 1155
1684 1155
1685 1155
1686 1155
1687 1155
1688 1155
1689 1155
1690 1155
1691 1155
1692 1155
1693 1155
1694 1155
1695 1155
1696 1155
1697 1155
1654 1156
1655 1156
1656 1156
1657 1156
1658 1156
1659 1156
1660 1156
1661 1156
1662 1156
1663 1156
1664 1156
1665 1156
1666 1156
1667 1156
1668 1156
1669 1156
1670 1156
1671 1156
1672 1156
1673 1156
1674 1156
1675 1156
1676 1156
1677 1156
1678 1156
1679 1156
1680 1156
1681 1156
1682 1156
1683 1156
1684 1156
1685 1156
1686 1156
1687 1156
1688 1156
1689 1156
1690 1156
1691 1156
1692 1156
1693 1156
1694 1156
1695 1156
1696 1156
1697 1156
1654 1157
1655 1157
1656 1157
1657 1157
1658 1157
1659 1157
1660 1157
1661 1157
1662 1157
1663 1157
1664 1157
1665 1157
1666 1157
1667 1157
1668 1157
1669 1157
1670 1157
1671 1157
1672 1157
1673 1157
1674 1157
1675 1157
1676 1157
1677 1157
1678 1157
1679 1157
1680 1157
1681 1157
1682 1157
1683 1157
1684 1157
1685 1157
1686 1157
1687 1157
1688 1157
1689 1157
1690 1157
1691 1157
1692 1157
1693 1157
1694 1157
1695 1157
1696 1157
1697 1157
1654 1158
1655 1158
1656 1158
1657 1158
1658 1158
1659 1158
1660 1158
1661 1158
1662 1158
1663 1158
1664 1158
1665 1158
1666 1158
1667 1158
1668 1158
1669 1158
1670 1158
1671 1158
1672 1158
1673 1158
1674 1158
1675 1158
1676 1158
1677 1158
1678 1158
1679 1158
1680 1158
1681 1158
1682 1158
1683 1158
1684 1158
1685 1158
1686 1158
1687 1158
1688 1158
1689 1158
1690 1158
1691 1158
1692 1158
1693 1158
1694 1158
1695 1158
1696 1158
1697 1158
1654 1159
1655 1159
1656 1159
1657 1159
1658 1159
1659 1159
1660 1159
1661 1159
1662 1159
1663 1159
1664 1159
1665 1159
1666 1159
1667 1159
1668 1159
1669 1159
1670 1159
1671 1159
1672 1159
1673 1159
1674 1159
1675 1159
1676 1159
1677 1159
1678 1159
1679 1159
1680 1159
1681 1159
1682 1159
1683 1159
1684 1159
1685 1159
1686 1159
1687 1159
1688 1159
1689 1159
1690 1159
1691 1159
1692 1159
1693 1159
1694 1159
1695 1159
1696 1159
1697 1159
1654 1160
1655 1160
1656 1160
1657 1160
1658 1160
1659 1160
1660 1160
1661 1160
1662 1160
1663 1160
1664 1160
1665 1160
1666 1160
1667 1160
1668 1160
1669 1160
1670 1160
1671 1160
1672 1160
1673 1160
1674 1160
1675 1160
1676 1160
1677 1160
1678 1160
1679 1160
1680 1160
1681 1160
1682 1160
1683 1160
1684 1160
1685 1160
1686 1160
1687 1160
1688 1160
1689 1160
1690 1160
1691 1160
1692 1160
1693 1160
1694 1160
1695 1160
1696 1160
1697 1160
1654 1161
1655 1161
1656 1161
1657 1161
1658 1161
1659 1161
1660 1161
1661 1161
1662 1161
1663 1161
1664 1161
1665 1161
1666 1161
1667 1161
1668 1161
1669 1161
1670 1161
1671 1161
1672 1161
1673 1161
1674 1161
1675 1161
1676 1161
1677 1161
1678 1161
1679 1161
1680 1161
1681 1161
1682 1161
1683 1161
1684 1161
1685 1161
1686 1161
1687 1161
1688 1161
1689 1161
1690 1161
1691 1161
1692 1161
1693 1161
1694 1161
1695 1161
1696 1161
1697 1161
1654 1162
1655 1162
1656 1162
1657 1162
1658 1162
1659 1162
1660 1162
1661 1162
1662 1162
1663 1162
1664 1162
1665 1162
1666 1162
1667 1162
1668 1162
1669 1162
1670 1162
1671 1162
1672 1162
1673 1162
1674 1162
1675 1162
1676 1162
1677 1162
1678 1162
1679 1162
1680 1162
1681 1162
1682 1162
1683 1162
1684 1162
1685 1162
1686 1162
1687 1162
1688 1162
1689 1162
1690 1162
1691 1162
1692 1162
1693 1162
1694 1162
1695 1162
1696 1162
1697 1162
1654 1163
1655 1163
1656 1163
1657 1163
1658 1163
1659 1163
1660 1163
1661 1163
1662 1163
1663 1163
1664 1163
1665 1163
1666 1163
1667 1163
1668 1163
1669 1163
1670 1163
1671 1163
1672 1163
1673 1163
1674 1163
1675 1163
1676 1163
1677 1163
1678 1163
1679 1163
1680 1163
1681 1163
1682 1163
1683 1163
1684 1163
1685 1163
1686 1163
1687 1163
1688 1163
1689 1163
1690 1163
1691 1163
1692 1163
1693 1163
1694 1163
1695 1163
1696 1163
1697 1163
1654 1164
1655 1164
1656 1164
1657 1164
1658 1164
1659 1164
1660 1164
1661 1164
1662 1164
1663 1164
1664 1164
1665 1164
1666 1164
1667 1164
1668 1164
1669 1164
1670 1164
1671 1164
1672 1164
1673 1164
1674 1164
1675 1164
1676 1164
1677 1164
1678 1164
1679 1164
1680 1164
1681 1164
1682 1164
1683 1164
1684 1164
1685 1164
1686 1164
1687 1164
1688 1164
1689 1164
1690 1164
1691 1164
1692 1164
1693 1164
1694 1164
1695 1164
1696 1164
1697 1164
1654 1165
1655 1165
1656 1165
1657 1165
1658 1165
1659 1165
1660 1165
1661 1165
1662 1165
1663 1165
1664 1165
1665 1165
1666 1165
1667 1165
1668 1165
1669 1165
1670 1165
1671 1165
1672 1165
1673 1165
1674 1165
1675 1165
1676 1165
1677 1165
1678 1165
1679 1165
1680 1165
1681 1165
1682 1165
1683 1165
1684 1165
1685 1165
1686 1165
1687 1165
1688 1165
1689 1165
1690 1165
1691 1165
1692 1165
1693 1165
1694 1165
1695 1165
1696 1165
1697 1165
1654 1166
1655 1166
1656 1166
1657 1166
1658 1166
1659 1166
1660 1166
1661 1166
1662 1166
1663 1166
1664 1166
1665 1166
1666 1166
1667 1166
1668 1166
1669 1166
1670 1166
1671 1166
1672 1166
1673 1166
1674 1166
1675 1166
1676 1166
1677 1166
1678 1166
1679 1166
1680 1166
1681 1166
1682 1166
1683 1166
1684 1166
1685 1166
1686 1166
1687 1166
1688 1166
1689 1166
1690 1166
1691 1166
1692 1166
1693 1166
1694 1166
1695 1166
1696 1166
1697 1166
1654 1167
1655 1167
1656 1167
1657 1167
1658 1167
1659 1167
1660 1167
1661 1167
1662 1167
1663 1167
1664 1167
1665 1167
1666 1167
1667 1167
1668 1167
1669 1167
1670 1167
1671 1167
1672 1167
1673 1167
1674 1167
1675 1167
1676 1167
1677 1167
1678 1167
1679 1167
1680 1167
1681 1167
1682 1167
1683 1167
1684 1167
1685 1167
1686 1167
1687 1167
1688 1167
1689 1167
1690 1167
1691 1167
1692 1167
1693 1167
1694 1167
1695 1167
1696 1167
1697 1167
1654 1168
1655 1168
1656 1168
1657 1168
1658 1168
1659 1168
1660 1168
1661 1168
1662 1168
1663 1168
1664 1168
1665 1168
1666 1168
1667 1168
1668 1168
1669 1168
1670 1168
1671 1168
1672 1168
1673 1168
1674 1168
1675 1168
1676 1168
1677 1168
1678 1168
1679 1168
1680 1168
1681 1168
1682 1168
1683 1168
1684 1168
1685 1168
1686 1168
1687 1168
1688 1168
1689 1168
1690 1168
1691 1168
1692 1168
1693 1168
1694 1168
1695 1168
1696 1168
1697 1168
1654 1169
1655 1169
1656 1169
1657 1169
1658 1169
1659 1169
1660 1169
1661 1169
1662 1169
1663 1169
1664 1169
1665 1169
1666 1169
1667 1169
1668 1169
1669 1169
1670 1169
1671 1169
1672 1169
1673 1169
1674 1169
1675 1169
1676 1169
1677 1169
1678 1169
1679 1169
1680 1169
1681 1169
1682 1169
1683 1169
1684 1169
1685 1169
1686 1169
1687 1169
1688 1169
1689 1169
1690 1169
1691 1169
1692 1169
1693 1169
1694 1169
1695 1169
1696 1169
1697 1169
1654 1170
1655 1170
1656 1170
1657 1170
1658 1170
1659 1170
1660 1170
1661 1170
1662 1170
1663 1170
1664 1170
1665 1170
1666 1170
1667 1170
1668 1170
1669 1170
1670 1170
1671 1170
1672 1170
1673 1170
1674 1170
1675 1170
1676 1170
1677 1170
1678 1170
1679 1170
1680 1170
1681 1170
1682 1170
1683 1170
1684 1170
1685 1170
1686 1170
1687 1170
1688 1170
1689 1170
1690 1170
1691 1170
1692 1170
1693 1170
1694 1170
1695 1170
1696 1170
1697 1170
1654 1171
1655 1171
1656 1171
1657 1171
1658 1171
1659 1171
1660 1171
1661 1171
1662 1171
1663 1171
1664 1171
1665 1171
1666 1171
1667 1171
1668 1171
1669 1171
1670 1171
1671 1171
1672 1171
1673 1171
1674 1171
1675 1171
1676 1171
1677 1171
1678 1171
1679 1171
1680 1171
1681 1171
1682 1171
1683 1171
1684 1171
1685 1171
1686 1171
1687 1171
1688 1171
1689 1171
1690 1171
1691 1171
1692 1171
1693 1171
1694 1171
1695 1171
1696 1171
1697 1171
1654 1172
1655 1172
1656 1172
1657 1172
1658 1172
1659 1172
1660 1172
1661 1172
1662 1172
1663 1172
1664 1172
1665 1172
1666 1172
1667 1172
1668 1172
1669 1172
1670 1172
1671 1172
1672 1172
1673 1172
1674 1172
1675 1172
1676 1172
1677 1172
1678 1172
1679 1172
1680 1172
1681 1172
1682 1172
1683 1172
1684 1172
1685 1172
1686 1172
1687 1172
1688 1172
1689 1172
1690 1172
1691 1172
1692 1172
1693 1172
1694 1172
1695 1172
1696 1172
1697 1172
1654 1173
1655 1173
1656 1173
1657 1173
1658 1173
1659 1173
1660 1173
1661 1173
1662 1173
1663 1173
1664 1173
1665 1173
1666 1173
1667 1173
1668 1173
1669 1173
1670 1173
1671 1173
1672 1173
1673 1173
1674 1173
1675 1173
1676 1173
1677 1173
1678 1173
1679 1173
1680 1173
1681 1173
1682 1173
1683 1173
1684 1173
1685 1173
1686 1173
1687 1173
1688 1173
1689 1173
1690 1173
1691 1173
1692 1173
1693 1173
1694 1173
1695 1173
1696 1173
1697 1173
1654 1174
1655 1174
1656 1174
1657 1174
1658 1174
1659 1174
1660 1174
1661 1174
1662 1174
1663 1174
1664 1174
1665 1174
1666 1174
1667 1174
1668 1174
1669 1174
1670 1174
1671 1174
1672 1174
1673 1174
1674 1174
1675 1174
1676 1174
1677 1174
1678 1174
1679 1174
1680 1174
1681 1174
1682 1174
1683 1174
1684 1174
1685 1174
1686 1174
1687 1174
1688 1174
1689 1174
1690 1174
1691 1174
1692 1174
1693 1174
1694 1174
1695 1174
1696 1174
1697 1174
1654 1175
1655 1175
1656 1175
1657 1175
1658 1175
1659 1175
1660 1175
1661 1175
1662 1175
1663 1175
1664 1175
1665 1175
1666 1175
1667 1175
1668 1175
1669 1175
1670 1175
1671 1175
1672 1175
1673 1175
1674 1175
1675 1175
1676 1175
1677 1175
1678 1175
1679 1175
1680 1175
1681 1175
1682 1175
1683 1175
1684 1175
1685 1175
1686 1175
1687 1175
1688 1175
1689 1175
1690 1175
1691 1175
1692 1175
1693 1175
1694 1175
1695 1175
1696 1175
1697 1175
1654 1176
1655 1176
1656 1176
1657 1176
1658 1176
1659 1176
1660 1176
1661 1176
1662 1176
1663 1176
1664 1176
1665 1176
1666 1176
1667 1176
1668 1176
1669 1176
1670 1176
1671 1176
1672 1176
1673 1176
1674 1176
1675 1176
1676 1176
1677 1176
1678 1176
1679 1176
1680 1176
1681 1176
1682 1176
1683 1176
1684 1176
1685 1176
1686 1176
1687 1176
1688 1176
1689 1176
1690 1176
1691 1176
1692 1176
1693 1176
1694 1176
1695 1176
1696 1176
1697 1176
1654 1177
1655 1177
1656 1177
1657 1177
1658 1177
1659 1177
1660 1177
1661 1177
1662 1177
1663 1177
1664 1177
1665 1177
1666 1177
1667 1177
1668 1177
1669 1177
1670 1177
1671 1177
1672 1177
1673 1177
1674 1177
1675 1177
1676 1177
1677 1177
1678 1177
1679 1177
1680 1177
1681 1177
1682 1177
1683 1177
1684 1177
1685 1177
1686 1177
1687 1177
1688 1177
1689 1177
1690 1177
1691 1177
1692 1177
1693 1177
1694 1177
1695 1177
1696 1177
1697 1177
1654 1178
1655 1178
1656 1178
1657 1178
1658 1178
1659 1178
1660 1178
1661 1178
1662 1178
1663 1178
1664 1178
1665 1178
1666 1178
1667 1178
1668 1178
1669 1178
1670 1178
1671 1178
1672 1178
1673 1178
1674 1178
1675 1178
1676 1178
1677 1178
1678 1178
1679 1178
1680 1178
1681 1178
1682 1178
1683 1178
1684 1178
1685 1178
1686 1178
1687 1178
1688 1178
1689 1178
1690 1178
1691 1178
1692 1178
1693 1178
1694 1178
1695 1178
1696 1178
1697 1178
1654 1179
1655 1179
1656 1179
1657 1179
1658 1179
1659 1179
1660 1179
1661 1179
1662 1179
1663 1179
1664 1179
1665 1179
1666 1179
1667 1179
1668 1179
1669 1179
1670 1179
1671 1179
1672 1179
1673 1179
1674 1179
1675 1179
1676 1179
1677 1179
1678 1179
1679 1179
1680 1179
1681 1179
1682 1179
1683 1179
1684 1179
1685 1179
1686 1179
1687 1179
1688 1179
1689 1179
1690 1179
1691 1179
1692 1179
1693 1179
1694 1179
1695 1179
1696 1179
1697 1179
1654 1180
1655 1180
1656 1180
1657 1180
1658 1180
1659 1180
1660 1180
1661 1180
1662 1180
1663 1180
1664 1180
1665 1180
1666 1180
1667 1180
1668 1180
1669 1180
1670 1180
1671 1180
1672 1180
1673 1180
1674 1180
1675 1180
1676 1180
1677 1180
1678 1180
1679 1180
1680 1180
1681 1180
1682 1180
1683 1180
1684 1180
1685 1180
1686 1180
1687 1180
1688 1180
1689 1180
1690 1180
1691 1180
1692 1180
1693 1180
1694 1180
1695 1180
1696 1180
1697 1180
1654 1181
1655 1181
1656 1181
1657 1181
1658 1181
1659 1181
1660 1181
1661 1181
1662 1181
1663 1181
1664 1181
1665 1181
1666 1181
1667 1181
1668 1181
1669 1181
1670 1181
1671 1181
1672 1181
1673 1181
1674 1181
1675 1181
1676 1181
1677 1181
1678 1181
1679 1181
1680 1181
1681 1181
1682 1181
1683 1181
1684 1181
1685 1181
1686 1181
1687 1181
1688 1181
1689 1181
1690 1181
1691 1181
1692 1181
1693 1181
1694 1181
1695 1181
1696 1181
1697 1181
1654 1182
1655 1182
1656 1182
1657 1182
1658 1182
1659 1182
1660 1182
1661 1182
1662 1182
1663 1182
1664 1182
1665 1182
1666 1182
1667 1182
1668 1182
1669 1182
1670 1182
1671 1182
1672 1182
1673 1182
1674 1182
1675 1182
1676 1182
1677 1182
1678 1182
1679 1182
1680 1182
1681 1182
1682 1182
1683 1182
1684 1182
1685 1182
1686 1182
1687 1182
1688 1182
1689 1182
1690 1182
1691 1182
1692 1182
1693 1182
1694 1182
1695 1182
1696 1182
1697 1182
