%%MatrixMarket matrix coordinate pattern general
1773 1226 660
1 1
2 2
3 3
4 4
5 5
6 6
7 7
8 8
9 9
10 10
11 11
12 12
13 13
14 14
15 15
16 16
17 17
18 18
19 19
20 20
21 21
22 22
23 23
24 24
25 25
26 26
27 27
28 28
29 29
30 30
31 31
32 32
33 33
34 34
35 35
36 36
37 37
38 38
39 39
40 40
41 41
42 42
43 43
44 44
45 98
46 99
47 100
48 101
49 102
50 103
51 104
52 105
53 106
54 107
55 108
56 109
57 110
58 111
59 112
60 113
61 114
62 115
63 116
64 117
65 118
66 119
67 120
68 121
69 122
70 123
71 124
72 125
73 126
74 127
75 128
76 129
77 130
78 131
79 132
80 133
81 134
82 135
83 136
84 137
85 138
86 139
87 140
88 141
150 195
151 196
152 197
153 198
154 199
155 200
156 201
157 202
158 203
159 204
160 205
161 206
162 207
163 208
164 209
165 210
166 211
167 212
168 213
169 214
170 215
171 216
172 217
173 218
174 219
175 220
176 221
177 222
178 223
179 224
180 225
181 226
182 227
183 228
184 229
185 230
186 231
187 232
188 233
189 234
190 235
191 236
192 237
193 238
302 292
303 293
304 294
305 295
306 296
307 297
308 298
309 299
310 300
311 301
312 302
313 303
314 304
315 305
316 306
317 307
318 308
319 309
320 310
321 311
322 312
323 313
324 314
325 315
326 316
327 317
328 318
329 319
330 320
331 321
332 322
333 323
334 324
335 325
336 326
337 327
338 328
339 329
340 330
341 331
342 332
343 333
344 334
345 335
454 373
455 374
456 375
457 376
458 377
459 378
460 379
461 380
462 381
463 382
464 383
465 384
466 385
467 386
468 387
469 388
470 389
471 390
472 391
473 392
474 393
475 394
476 395
477 396
478 397
479 398
480 399
481 400
482 401
483 402
484 403
485 404
486 405
487 406
488 407
489 408
490 409
491 410
492 411
493 412
494 413
495 414
496 415
497 416
574 454
575 455
576 456
577 457
578 458
579 459
580 460
581 461
582 462
583 463
584 464
585 465
586 466
587 467
588 468
589 469
590 470
591 471
592 472
593 473
594 474
595 475
596 476
597 477
598 478
599 479
600 480
601 481
602 482
603 483
604 484
605 485
606 486
607 487
608 488
609 489
610 490
611 491
612 492
613 493
614 494
615 495
616 496
617 497
694 535
695 536
696 537
697 538
698 539
699 540
700 541
701 542
702 543
703 544
704 545
705 546
706 547
707 548
708 549
709 550
710 551
711 552
712 553
713 554
714 555
715 556
716 557
717 558
718 559
719 560
720 561
721 562
722 563
723 564
724 565
725 566
726 567
727 568
728 569
729 570
730 571
731 572
732 573
733 574
734 575
735 576
736 577
737 578
814 616
815 617
816 618
817 619
818 620
819 621
820 622
821 623
822 624
823 625
824 626
825 627
826 628
827 629
828 630
829 631
830 632
831 633
832 634
833 635
834 636
835 637
836 638
837 639
838 640
839 641
840 642
841 643
842 644
843 645
844 646
845 647
846 648
847 649
848 650
849 651
850 652
851 653
852 654
853 655
854 656
855 657
856 658
857 659
934 697
935 698
936 699
937 700
938 701
939 702
940 703
941 704
942 705
943 706
944 707
945 708
946 709
947 710
948 711
949 712
950 713
951 714
952 715
953 716
954 717
955 718
956 719
957 720
958 721
959 722
960 723
961 724
962 725
963 726
964 727
965 728
966 729
967 730
968 731
969 732
970 733
971 734
972 735
973 736
974 737
975 738
976 739
977 740
1054 778
1055 779
1056 780
1057 781
1058 782
1059 783
1060 784
1061 785
1062 786
1063 787
1064 788
1065 789
1066 790
1067 791
1068 792
1069 793
1070 794
1071 795
1072 796
1073 797
1074 798
1075 799
1076 800
1077 801
1078 802
1079 803
1080 804
1081 805
1082 806
1083 807
1084 808
1085 809
1086 810
1087 811
1088 812
1089 813
1090 814
1091 815
1092 816
1093 817
1094 818
1095 819
1096 820
1097 821
1174 859
1175 860
1176 861
1177 862
1178 863
1179 864
1180 865
1181 866
1182 867
1183 868
1184 869
1185 870
1186 871
1187 872
1188 873
1189 874
1190 875
1191 876
1192 877
1193 878
1194 879
1195 880
1196 881
1197 882
1198 883
1199 884
1200 885
1201 886
1202 887
1203 888
1204 889
1205 890
1206 891
1207 892
1208 893
1209 894
1210 895
1211 896
1212 897
1213 898
1214 899
1215 900
1216 901
1217 902
1294 940
1295 941
1296 942
1297 943
1298 944
1299 945
1300 946
1301 947
1302 948
1303 949
1304 950
1305 951
1306 952
1307 953
1308 954
1309 955
1310 956
1311 957
1312 958
1313 959
1314 960
1315 961
1316 962
1317 963
1318 964
1319 965
1320 966
1321 967
1322 968
1323 969
1324 970
1325 971
1326 972
1327 973
1328 974
1329 975
1330 976
1331 977
1332 978
1333 979
1334 980
1335 981
1336 982
1337 983
1414 1021
1415 1022
1416 1023
1417 1024
1418 1025
1419 1026
1420 1027
1421 1028
1422 1029
1423 1030
1424 1031
1425 1032
1426 1033
1427 1034
1428 1035
1429 1036
1430 1037
1431 1038
1432 1039
1433 1040
1434 1041
1435 1042
1436 1043
1437 1044
1438 1045
1439 1046
1440 1047
1441 1048
1442 1049
1443 1050
1444 1051
1445 1052
1446 1053
1447 1054
1448 1055
1449 1056
1450 1057
1451 1058
1452 1059
1453 1060
1454 1061
1455 1062
1456 1063
1457 1064
1534 1102
1535 1103
1536 1104
1537 1105
1538 1106
1539 1107
1540 1108
1541 1109
1542 1110
1543 1111
1544 1112
1545 1113
1546 1114
1547 1115
1548 1116
1549 1117
1550 1118
1551 1119
1552 1120
1553 1121
1554 1122
1555 1123
1556 1124
1557 1125
1558 1126
1559 1127
1560 1128
1561 1129
1562 1130
1563 1131
1564 1132
1565 1133
1566 1134
1567 1135
1568 1136
1569 1137
1570 1138
1571 1139
1572 1140
1573 1141
1574 1142
1575 1143
1576 1144
1577 1145
1654 1183
1655 1184
1656 1185
1657 1186
1658 1187
1659 1188
1660 1189
1661 1190
1662 1191
1663 1192
1664 1193
1665 1194
1666 1195
1667 1196
1668 1197
1669 1198
1670 1199
1671 1200
1672 1201
1673 1202
1674 1203
1675 1204
1676 1205
1677 1206
1678 1207
1679 1208
1680 1209
1681 1210
1682 1211
1683 1212
1684 1213
1685 1214
1686 1215
1687 1216
1688 1217
1689 1218
1690 1219
1691 1220
1692 1221
1693 1222
1694 1223
1695 1224
1696 1225
1697 1226
