%%MatrixMarket matrix coordinate pattern general
1773 1226 13725
1 1
45 1
2 2
46 2
3 3
47 3
4 4
48 4
89 4
90 4
91 4
92 4
93 4
94 4
95 4
96 4
97 4
98 4
99 4
100 4
101 4
102 4
103 4
104 4
105 4
106 4
107 4
108 4
109 4
110 4
5 5
49 5
89 5
90 5
91 5
92 5
93 5
94 5
95 5
96 5
97 5
98 5
99 5
100 5
101 5
102 5
103 5
104 5
105 5
106 5
107 5
108 5
109 5
110 5
6 6
50 6
89 6
90 6
91 6
92 6
93 6
94 6
95 6
96 6
97 6
98 6
99 6
100 6
101 6
102 6
103 6
104 6
105 6
106 6
107 6
108 6
109 6
110 6
7 7
51 7
89 7
90 7
91 7
92 7
93 7
94 7
95 7
96 7
97 7
8 8
52 8
89 8
90 8
91 8
92 8
93 8
94 8
95 8
96 8
97 8
9 9
53 9
89 9
90 9
91 9
92 9
93 9
94 9
95 9
96 9
97 9
10 10
54 10
89 10
90 10
91 10
92 10
93 10
94 10
98 10
99 10
100 10
11 11
55 11
89 11
90 11
91 11
92 11
93 11
94 11
98 11
99 11
100 11
12 12
56 12
89 12
90 12
91 12
92 12
93 12
94 12
98 12
99 12
100 12
13 13
57 13
89 13
90 13
91 13
92 13
93 13
94 13
101 13
102 13
103 13
14 14
58 14
89 14
90 14
91 14
92 14
93 14
94 14
101 14
102 14
103 14
15 15
59 15
89 15
90 15
91 15
92 15
93 15
94 15
101 15
102 15
103 15
16 16
60 16
89 16
90 16
91 16
92 16
93 16
94 16
104 16
105 16
106 16
17 17
61 17
89 17
90 17
91 17
92 17
93 17
94 17
104 17
105 17
106 17
18 18
62 18
89 18
90 18
91 18
92 18
93 18
94 18
104 18
105 18
106 18
19 19
63 19
89 19
90 19
91 19
92 19
93 19
94 19
107 19
108 19
109 19
110 19
20 20
64 20
89 20
90 20
91 20
92 20
93 20
94 20
107 20
108 20
109 20
110 20
21 21
65 21
89 21
90 21
91 21
92 21
93 21
94 21
107 21
108 21
109 21
110 21
22 22
66 22
89 22
90 22
91 22
92 22
93 22
94 22
107 22
108 22
109 22
110 22
23 23
45 23
67 23
89 23
90 23
91 23
92 23
93 23
94 23
95 23
96 23
97 23
98 23
99 23
100 23
101 23
102 23
103 23
104 23
105 23
106 23
107 23
108 23
109 23
110 23
24 24
46 24
68 24
89 24
90 24
91 24
92 24
93 24
94 24
95 24
96 24
97 24
98 24
99 24
100 24
101 24
102 24
103 24
104 24
105 24
106 24
107 24
108 24
109 24
110 24
25 25
47 25
69 25
89 25
90 25
91 25
92 25
93 25
94 25
95 25
96 25
97 25
98 25
99 25
100 25
101 25
102 25
103 25
104 25
105 25
106 25
107 25
108 25
109 25
110 25
26 26
48 26
70 26
89 26
90 26
91 26
92 26
93 26
94 26
95 26
96 26
97 26
98 26
99 26
100 26
101 26
102 26
103 26
104 26
105 26
106 26
107 26
108 26
109 26
110 26
27 27
49 27
71 27
89 27
90 27
91 27
92 27
93 27
94 27
95 27
96 27
97 27
98 27
99 27
100 27
101 27
102 27
103 27
104 27
105 27
106 27
107 27
108 27
109 27
110 27
28 28
50 28
72 28
89 28
90 28
91 28
92 28
93 28
94 28
95 28
96 28
97 28
98 28
99 28
100 28
101 28
102 28
103 28
104 28
105 28
106 28
107 28
108 28
109 28
110 28
29 29
51 29
73 29
89 29
90 29
91 29
92 29
93 29
94 29
95 29
96 29
97 29
30 30
52 30
74 30
89 30
90 30
91 30
92 30
93 30
94 30
95 30
96 30
97 30
31 31
53 31
75 31
89 31
90 31
91 31
92 31
93 31
94 31
95 31
96 31
97 31
32 32
54 32
76 32
89 32
90 32
91 32
92 32
93 32
94 32
98 32
99 32
100 32
33 33
55 33
77 33
89 33
90 33
91 33
92 33
93 33
94 33
98 33
99 33
100 33
34 34
56 34
78 34
89 34
90 34
91 34
92 34
93 34
94 34
98 34
99 34
100 34
35 35
57 35
79 35
89 35
90 35
91 35
92 35
93 35
94 35
101 35
102 35
103 35
36 36
58 36
80 36
89 36
90 36
91 36
92 36
93 36
94 36
101 36
102 36
103 36
37 37
59 37
81 37
89 37
90 37
91 37
92 37
93 37
94 37
101 37
102 37
103 37
38 38
60 38
82 38
89 38
90 38
91 38
92 38
93 38
94 38
104 38
105 38
106 38
39 39
61 39
83 39
89 39
90 39
91 39
92 39
93 39
94 39
104 39
105 39
106 39
40 40
62 40
84 40
89 40
90 40
91 40
92 40
93 40
94 40
104 40
105 40
106 40
41 41
63 41
85 41
89 41
90 41
91 41
92 41
93 41
94 41
107 41
108 41
109 41
110 41
42 42
64 42
86 42
89 42
90 42
91 42
92 42
93 42
94 42
107 42
108 42
109 42
110 42
43 43
65 43
87 43
89 43
90 43
91 43
92 43
93 43
94 43
107 43
108 43
109 43
110 43
44 44
66 44
88 44
89 44
90 44
91 44
92 44
93 44
94 44
107 44
108 44
109 44
110 44
67 45
89 45
90 45
91 45
92 45
93 45
94 45
95 45
96 45
97 45
98 45
99 45
100 45
101 45
102 45
103 45
104 45
105 45
106 45
107 45
108 45
109 45
110 45
68 46
89 46
90 46
91 46
92 46
93 46
94 46
95 46
96 46
97 46
98 46
99 46
100 46
101 46
102 46
103 46
104 46
105 46
106 46
107 46
108 46
109 46
110 46
69 47
89 47
90 47
91 47
92 47
93 47
94 47
95 47
96 47
97 47
98 47
99 47
100 47
101 47
102 47
103 47
104 47
105 47
106 47
107 47
108 47
109 47
110 47
70 48
89 48
90 48
91 48
92 48
93 48
94 48
95 48
96 48
97 48
98 48
99 48
100 48
101 48
102 48
103 48
104 48
105 48
106 48
107 48
108 48
109 48
110 48
71 49
89 49
90 49
91 49
92 49
93 49
94 49
95 49
96 49
97 49
98 49
99 49
100 49
101 49
102 49
103 49
104 49
105 49
106 49
107 49
108 49
109 49
110 49
72 50
89 50
90 50
91 50
92 50
93 50
94 50
95 50
96 50
97 50
98 50
99 50
100 50
101 50
102 50
103 50
104 50
105 50
106 50
107 50
108 50
109 50
110 50
73 51
89 51
90 51
91 51
92 51
93 51
94 51
95 51
96 51
97 51
74 52
89 52
90 52
91 52
92 52
93 52
94 52
95 52
96 52
97 52
75 53
89 53
90 53
91 53
92 53
93 53
94 53
95 53
96 53
97 53
76 54
89 54
90 54
91 54
92 54
93 54
94 54
98 54
99 54
100 54
77 55
89 55
90 55
91 55
92 55
93 55
94 55
98 55
99 55
100 55
78 56
89 56
90 56
91 56
92 56
93 56
94 56
98 56
99 56
100 56
79 57
89 57
90 57
91 57
92 57
93 57
94 57
101 57
102 57
103 57
80 58
89 58
90 58
91 58
92 58
93 58
94 58
101 58
102 58
103 58
81 59
89 59
90 59
91 59
92 59
93 59
94 59
101 59
102 59
103 59
82 60
89 60
90 60
91 60
92 60
93 60
94 60
104 60
105 60
106 60
83 61
89 61
90 61
91 61
92 61
93 61
94 61
104 61
105 61
106 61
84 62
89 62
90 62
91 62
92 62
93 62
94 62
104 62
105 62
106 62
85 63
89 63
90 63
91 63
92 63
93 63
94 63
107 63
108 63
109 63
110 63
86 64
89 64
90 64
91 64
92 64
93 64
94 64
107 64
108 64
109 64
110 64
87 65
89 65
90 65
91 65
92 65
93 65
94 65
107 65
108 65
109 65
110 65
88 66
89 66
90 66
91 66
92 66
93 66
94 66
107 66
108 66
109 66
110 66
89 67
90 67
91 67
92 67
93 67
94 67
98 67
99 67
100 67
128 67
129 67
89 68
90 68
91 68
92 68
93 68
94 68
98 68
99 68
100 68
128 68
130 68
89 69
90 69
91 69
92 69
93 69
94 69
98 69
99 69
100 69
127 69
128 69
131 69
89 70
90 70
91 70
92 70
93 70
94 70
95 70
96 70
97 70
133 70
134 70
89 71
90 71
91 71
92 71
93 71
94 71
95 71
96 71
97 71
133 71
135 71
89 72
90 72
91 72
92 72
93 72
94 72
95 72
96 72
97 72
132 72
133 72
136 72
89 73
90 73
91 73
92 73
93 73
94 73
104 73
105 73
106 73
138 73
139 73
89 74
90 74
91 74
92 74
93 74
94 74
104 74
105 74
106 74
138 74
140 74
89 75
90 75
91 75
92 75
93 75
94 75
104 75
105 75
106 75
137 75
138 75
141 75
89 76
90 76
91 76
92 76
93 76
94 76
101 76
102 76
103 76
143 76
144 76
89 77
90 77
91 77
92 77
93 77
94 77
101 77
102 77
103 77
143 77
145 77
89 78
90 78
91 78
92 78
93 78
94 78
101 78
102 78
103 78
142 78
143 78
146 78
89 79
90 79
91 79
92 79
93 79
94 79
107 79
108 79
109 79
110 79
147 79
89 80
90 80
91 80
92 80
93 80
94 80
107 80
108 80
109 80
110 80
148 80
89 81
90 81
91 81
92 81
93 81
94 81
107 81
108 81
109 81
110 81
149 81
95 82
111 82
96 83
112 83
97 84
113 84
98 85
114 85
99 86
115 86
100 87
116 87
101 88
117 88
102 89
118 89
103 90
119 90
104 91
120 91
105 92
121 92
106 93
122 93
107 94
123 94
108 95
124 95
109 96
125 96
110 97
126 97
45 98
150 98
46 99
151 99
47 100
152 100
48 101
153 101
194 101
195 101
196 101
197 101
198 101
199 101
200 101
201 101
202 101
203 101
204 101
205 101
206 101
207 101
208 101
209 101
210 101
211 101
212 101
213 101
214 101
215 101
237 101
238 101
239 101
245 101
246 101
247 101
253 101
254 101
255 101
261 101
262 101
263 101
267 101
268 101
269 101
49 102
154 102
194 102
195 102
196 102
197 102
198 102
199 102
200 102
201 102
202 102
203 102
204 102
205 102
206 102
207 102
208 102
209 102
210 102
211 102
212 102
213 102
214 102
215 102
237 102
238 102
239 102
245 102
246 102
247 102
253 102
254 102
255 102
261 102
262 102
263 102
267 102
268 102
269 102
50 103
155 103
194 103
195 103
196 103
197 103
198 103
199 103
200 103
201 103
202 103
203 103
204 103
205 103
206 103
207 103
208 103
209 103
210 103
211 103
212 103
213 103
214 103
215 103
237 103
238 103
239 103
245 103
246 103
247 103
253 103
254 103
255 103
261 103
262 103
263 103
267 103
268 103
269 103
51 104
156 104
194 104
195 104
196 104
197 104
198 104
199 104
200 104
201 104
202 104
245 104
246 104
247 104
270 104
52 105
157 105
194 105
195 105
196 105
197 105
198 105
199 105
200 105
201 105
202 105
245 105
246 105
247 105
271 105
53 106
158 106
194 106
195 106
196 106
197 106
198 106
199 106
200 106
201 106
202 106
245 106
246 106
247 106
272 106
54 107
159 107
194 107
195 107
196 107
197 107
198 107
199 107
203 107
204 107
205 107
237 107
238 107
239 107
273 107
55 108
160 108
194 108
195 108
196 108
197 108
198 108
199 108
203 108
204 108
205 108
237 108
238 108
239 108
274 108
56 109
161 109
194 109
195 109
196 109
197 109
198 109
199 109
203 109
204 109
205 109
237 109
238 109
239 109
275 109
57 110
162 110
194 110
195 110
196 110
197 110
198 110
199 110
206 110
207 110
208 110
261 110
262 110
263 110
276 110
58 111
163 111
194 111
195 111
196 111
197 111
198 111
199 111
206 111
207 111
208 111
261 111
262 111
263 111
277 111
59 112
164 112
194 112
195 112
196 112
197 112
198 112
199 112
206 112
207 112
208 112
261 112
262 112
263 112
278 112
60 113
165 113
194 113
195 113
196 113
197 113
198 113
199 113
209 113
210 113
211 113
253 113
254 113
255 113
279 113
61 114
166 114
194 114
195 114
196 114
197 114
198 114
199 114
209 114
210 114
211 114
253 114
254 114
255 114
280 114
62 115
167 115
194 115
195 115
196 115
197 115
198 115
199 115
209 115
210 115
211 115
253 115
254 115
255 115
281 115
63 116
168 116
194 116
195 116
196 116
197 116
198 116
199 116
212 116
213 116
214 116
215 116
267 116
268 116
269 116
282 116
64 117
169 117
194 117
195 117
196 117
197 117
198 117
199 117
212 117
213 117
214 117
215 117
267 117
268 117
269 117
283 117
65 118
170 118
194 118
195 118
196 118
197 118
198 118
199 118
212 118
213 118
214 118
215 118
267 118
268 118
269 118
284 118
66 119
171 119
194 119
195 119
196 119
197 119
198 119
199 119
212 119
213 119
214 119
215 119
267 119
268 119
269 119
285 119
67 120
150 120
172 120
194 120
195 120
196 120
197 120
198 120
199 120
200 120
201 120
202 120
203 120
204 120
205 120
206 120
207 120
208 120
209 120
210 120
211 120
212 120
213 120
214 120
215 120
237 120
238 120
239 120
245 120
246 120
247 120
253 120
254 120
255 120
261 120
262 120
263 120
267 120
268 120
269 120
68 121
151 121
173 121
194 121
195 121
196 121
197 121
198 121
199 121
200 121
201 121
202 121
203 121
204 121
205 121
206 121
207 121
208 121
209 121
210 121
211 121
212 121
213 121
214 121
215 121
237 121
238 121
239 121
245 121
246 121
247 121
253 121
254 121
255 121
261 121
262 121
263 121
267 121
268 121
269 121
69 122
152 122
174 122
194 122
195 122
196 122
197 122
198 122
199 122
200 122
201 122
202 122
203 122
204 122
205 122
206 122
207 122
208 122
209 122
210 122
211 122
212 122
213 122
214 122
215 122
237 122
238 122
239 122
245 122
246 122
247 122
253 122
254 122
255 122
261 122
262 122
263 122
267 122
268 122
269 122
70 123
153 123
175 123
194 123
195 123
196 123
197 123
198 123
199 123
200 123
201 123
202 123
203 123
204 123
205 123
206 123
207 123
208 123
209 123
210 123
211 123
212 123
213 123
214 123
215 123
237 123
238 123
239 123
245 123
246 123
247 123
253 123
254 123
255 123
261 123
262 123
263 123
267 123
268 123
269 123
71 124
154 124
176 124
194 124
195 124
196 124
197 124
198 124
199 124
200 124
201 124
202 124
203 124
204 124
205 124
206 124
207 124
208 124
209 124
210 124
211 124
212 124
213 124
214 124
215 124
237 124
238 124
239 124
245 124
246 124
247 124
253 124
254 124
255 124
261 124
262 124
263 124
267 124
268 124
269 124
72 125
155 125
177 125
194 125
195 125
196 125
197 125
198 125
199 125
200 125
201 125
202 125
203 125
204 125
205 125
206 125
207 125
208 125
209 125
210 125
211 125
212 125
213 125
214 125
215 125
237 125
238 125
239 125
245 125
246 125
247 125
253 125
254 125
255 125
261 125
262 125
263 125
267 125
268 125
269 125
73 126
156 126
178 126
194 126
195 126
196 126
197 126
198 126
199 126
200 126
201 126
202 126
245 126
246 126
247 126
286 126
74 127
157 127
179 127
194 127
195 127
196 127
197 127
198 127
199 127
200 127
201 127
202 127
245 127
246 127
247 127
287 127
75 128
158 128
180 128
194 128
195 128
196 128
197 128
198 128
199 128
200 128
201 128
202 128
245 128
246 128
247 128
288 128
76 129
159 129
181 129
194 129
195 129
196 129
197 129
198 129
199 129
203 129
204 129
205 129
237 129
238 129
239 129
289 129
77 130
160 130
182 130
194 130
195 130
196 130
197 130
198 130
199 130
203 130
204 130
205 130
237 130
238 130
239 130
290 130
78 131
161 131
183 131
194 131
195 131
196 131
197 131
198 131
199 131
203 131
204 131
205 131
237 131
238 131
239 131
291 131
79 132
162 132
184 132
194 132
195 132
196 132
197 132
198 132
199 132
206 132
207 132
208 132
261 132
262 132
263 132
292 132
80 133
163 133
185 133
194 133
195 133
196 133
197 133
198 133
199 133
206 133
207 133
208 133
261 133
262 133
263 133
293 133
81 134
164 134
186 134
194 134
195 134
196 134
197 134
198 134
199 134
206 134
207 134
208 134
261 134
262 134
263 134
294 134
82 135
165 135
187 135
194 135
195 135
196 135
197 135
198 135
199 135
209 135
210 135
211 135
253 135
254 135
255 135
295 135
83 136
166 136
188 136
194 136
195 136
196 136
197 136
198 136
199 136
209 136
210 136
211 136
253 136
254 136
255 136
296 136
84 137
167 137
189 137
194 137
195 137
196 137
197 137
198 137
199 137
209 137
210 137
211 137
253 137
254 137
255 137
297 137
85 138
168 138
190 138
194 138
195 138
196 138
197 138
198 138
199 138
212 138
213 138
214 138
215 138
267 138
268 138
269 138
298 138
86 139
169 139
191 139
194 139
195 139
196 139
197 139
198 139
199 139
212 139
213 139
214 139
215 139
267 139
268 139
269 139
299 139
87 140
170 140
192 140
194 140
195 140
196 140
197 140
198 140
199 140
212 140
213 140
214 140
215 140
267 140
268 140
269 140
300 140
88 141
171 141
193 141
194 141
195 141
196 141
197 141
198 141
199 141
212 141
213 141
214 141
215 141
267 141
268 141
269 141
301 141
172 142
194 142
195 142
196 142
197 142
198 142
199 142
200 142
201 142
202 142
203 142
204 142
205 142
206 142
207 142
208 142
209 142
210 142
211 142
212 142
213 142
214 142
215 142
173 143
194 143
195 143
196 143
197 143
198 143
199 143
200 143
201 143
202 143
203 143
204 143
205 143
206 143
207 143
208 143
209 143
210 143
211 143
212 143
213 143
214 143
215 143
174 144
194 144
195 144
196 144
197 144
198 144
199 144
200 144
201 144
202 144
203 144
204 144
205 144
206 144
207 144
208 144
209 144
210 144
211 144
212 144
213 144
214 144
215 144
175 145
194 145
195 145
196 145
197 145
198 145
199 145
200 145
201 145
202 145
203 145
204 145
205 145
206 145
207 145
208 145
209 145
210 145
211 145
212 145
213 145
214 145
215 145
176 146
194 146
195 146
196 146
197 146
198 146
199 146
200 146
201 146
202 146
203 146
204 146
205 146
206 146
207 146
208 146
209 146
210 146
211 146
212 146
213 146
214 146
215 146
177 147
194 147
195 147
196 147
197 147
198 147
199 147
200 147
201 147
202 147
203 147
204 147
205 147
206 147
207 147
208 147
209 147
210 147
211 147
212 147
213 147
214 147
215 147
178 148
194 148
195 148
196 148
197 148
198 148
199 148
200 148
201 148
202 148
179 149
194 149
195 149
196 149
197 149
198 149
199 149
200 149
201 149
202 149
180 150
194 150
195 150
196 150
197 150
198 150
199 150
200 150
201 150
202 150
181 151
194 151
195 151
196 151
197 151
198 151
199 151
203 151
204 151
205 151
182 152
194 152
195 152
196 152
197 152
198 152
199 152
203 152
204 152
205 152
183 153
194 153
195 153
196 153
197 153
198 153
199 153
203 153
204 153
205 153
184 154
194 154
195 154
196 154
197 154
198 154
199 154
206 154
207 154
208 154
185 155
194 155
195 155
196 155
197 155
198 155
199 155
206 155
207 155
208 155
186 156
194 156
195 156
196 156
197 156
198 156
199 156
206 156
207 156
208 156
187 157
194 157
195 157
196 157
197 157
198 157
199 157
209 157
210 157
211 157
188 158
194 158
195 158
196 158
197 158
198 158
199 158
209 158
210 158
211 158
189 159
194 159
195 159
196 159
197 159
198 159
199 159
209 159
210 159
211 159
190 160
194 160
195 160
196 160
197 160
198 160
199 160
212 160
213 160
214 160
215 160
191 161
194 161
195 161
196 161
197 161
198 161
199 161
212 161
213 161
214 161
215 161
192 162
194 162
195 162
196 162
197 162
198 162
199 162
212 162
213 162
214 162
215 162
193 163
194 163
195 163
196 163
197 163
198 163
199 163
212 163
213 163
214 163
215 163
194 164
195 164
196 164
197 164
198 164
199 164
203 164
204 164
205 164
233 164
234 164
194 165
195 165
196 165
197 165
198 165
199 165
203 165
204 165
205 165
233 165
235 165
194 166
195 166
196 166
197 166
198 166
199 166
203 166
204 166
205 166
232 166
233 166
236 166
194 167
195 167
196 167
197 167
198 167
199 167
200 167
201 167
202 167
241 167
242 167
194 168
195 168
196 168
197 168
198 168
199 168
200 168
201 168
202 168
241 168
243 168
194 169
195 169
196 169
197 169
198 169
199 169
200 169
201 169
202 169
240 169
241 169
244 169
194 170
195 170
196 170
197 170
198 170
199 170
209 170
210 170
211 170
249 170
250 170
194 171
195 171
196 171
197 171
198 171
199 171
209 171
210 171
211 171
249 171
251 171
194 172
195 172
196 172
197 172
198 172
199 172
209 172
210 172
211 172
248 172
249 172
252 172
194 173
195 173
196 173
197 173
198 173
199 173
206 173
207 173
208 173
257 173
258 173
194 174
195 174
196 174
197 174
198 174
199 174
206 174
207 174
208 174
257 174
259 174
194 175
195 175
196 175
197 175
198 175
199 175
206 175
207 175
208 175
256 175
257 175
260 175
194 176
195 176
196 176
197 176
198 176
199 176
212 176
213 176
214 176
215 176
264 176
194 177
195 177
196 177
197 177
198 177
199 177
212 177
213 177
214 177
215 177
265 177
194 178
195 178
196 178
197 178
198 178
199 178
212 178
213 178
214 178
215 178
266 178
200 179
216 179
201 180
217 180
202 181
218 181
203 182
219 182
204 183
220 183
205 184
221 184
206 185
222 185
207 186
223 186
208 187
224 187
209 188
225 188
210 189
226 189
211 190
227 190
212 191
228 191
213 192
229 192
214 193
230 193
215 194
231 194
150 195
302 195
151 196
303 196
152 197
304 197
153 198
305 198
346 198
347 198
348 198
349 198
350 198
351 198
352 198
353 198
354 198
355 198
356 198
357 198
358 198
359 198
360 198
361 198
362 198
363 198
364 198
365 198
366 198
367 198
389 198
390 198
391 198
397 198
398 198
399 198
405 198
406 198
407 198
413 198
414 198
415 198
419 198
420 198
421 198
154 199
306 199
346 199
347 199
348 199
349 199
350 199
351 199
352 199
353 199
354 199
355 199
356 199
357 199
358 199
359 199
360 199
361 199
362 199
363 199
364 199
365 199
366 199
367 199
389 199
390 199
391 199
397 199
398 199
399 199
405 199
406 199
407 199
413 199
414 199
415 199
419 199
420 199
421 199
155 200
307 200
346 200
347 200
348 200
349 200
350 200
351 200
352 200
353 200
354 200
355 200
356 200
357 200
358 200
359 200
360 200
361 200
362 200
363 200
364 200
365 200
366 200
367 200
389 200
390 200
391 200
397 200
398 200
399 200
405 200
406 200
407 200
413 200
414 200
415 200
419 200
420 200
421 200
156 201
308 201
346 201
347 201
348 201
349 201
350 201
351 201
352 201
353 201
354 201
397 201
398 201
399 201
422 201
157 202
309 202
346 202
347 202
348 202
349 202
350 202
351 202
352 202
353 202
354 202
397 202
398 202
399 202
423 202
158 203
310 203
346 203
347 203
348 203
349 203
350 203
351 203
352 203
353 203
354 203
397 203
398 203
399 203
424 203
159 204
311 204
346 204
347 204
348 204
349 204
350 204
351 204
355 204
356 204
357 204
389 204
390 204
391 204
425 204
160 205
312 205
346 205
347 205
348 205
349 205
350 205
351 205
355 205
356 205
357 205
389 205
390 205
391 205
426 205
161 206
313 206
346 206
347 206
348 206
349 206
350 206
351 206
355 206
356 206
357 206
389 206
390 206
391 206
427 206
162 207
314 207
346 207
347 207
348 207
349 207
350 207
351 207
358 207
359 207
360 207
413 207
414 207
415 207
428 207
163 208
315 208
346 208
347 208
348 208
349 208
350 208
351 208
358 208
359 208
360 208
413 208
414 208
415 208
429 208
164 209
316 209
346 209
347 209
348 209
349 209
350 209
351 209
358 209
359 209
360 209
413 209
414 209
415 209
430 209
165 210
317 210
346 210
347 210
348 210
349 210
350 210
351 210
361 210
362 210
363 210
405 210
406 210
407 210
431 210
166 211
318 211
346 211
347 211
348 211
349 211
350 211
351 211
361 211
362 211
363 211
405 211
406 211
407 211
432 211
167 212
319 212
346 212
347 212
348 212
349 212
350 212
351 212
361 212
362 212
363 212
405 212
406 212
407 212
433 212
168 213
320 213
346 213
347 213
348 213
349 213
350 213
351 213
364 213
365 213
366 213
367 213
419 213
420 213
421 213
434 213
169 214
321 214
346 214
347 214
348 214
349 214
350 214
351 214
364 214
365 214
366 214
367 214
419 214
420 214
421 214
435 214
170 215
322 215
346 215
347 215
348 215
349 215
350 215
351 215
364 215
365 215
366 215
367 215
419 215
420 215
421 215
436 215
171 216
323 216
346 216
347 216
348 216
349 216
350 216
351 216
364 216
365 216
366 216
367 216
419 216
420 216
421 216
437 216
172 217
302 217
324 217
346 217
347 217
348 217
349 217
350 217
351 217
352 217
353 217
354 217
355 217
356 217
357 217
358 217
359 217
360 217
361 217
362 217
363 217
364 217
365 217
366 217
367 217
389 217
390 217
391 217
397 217
398 217
399 217
405 217
406 217
407 217
413 217
414 217
415 217
419 217
420 217
421 217
173 218
303 218
325 218
346 218
347 218
348 218
349 218
350 218
351 218
352 218
353 218
354 218
355 218
356 218
357 218
358 218
359 218
360 218
361 218
362 218
363 218
364 218
365 218
366 218
367 218
389 218
390 218
391 218
397 218
398 218
399 218
405 218
406 218
407 218
413 218
414 218
415 218
419 218
420 218
421 218
174 219
304 219
326 219
346 219
347 219
348 219
349 219
350 219
351 219
352 219
353 219
354 219
355 219
356 219
357 219
358 219
359 219
360 219
361 219
362 219
363 219
364 219
365 219
366 219
367 219
389 219
390 219
391 219
397 219
398 219
399 219
405 219
406 219
407 219
413 219
414 219
415 219
419 219
420 219
421 219
175 220
305 220
327 220
346 220
347 220
348 220
349 220
350 220
351 220
352 220
353 220
354 220
355 220
356 220
357 220
358 220
359 220
360 220
361 220
362 220
363 220
364 220
365 220
366 220
367 220
389 220
390 220
391 220
397 220
398 220
399 220
405 220
406 220
407 220
413 220
414 220
415 220
419 220
420 220
421 220
176 221
306 221
328 221
346 221
347 221
348 221
349 221
350 221
351 221
352 221
353 221
354 221
355 221
356 221
357 221
358 221
359 221
360 221
361 221
362 221
363 221
364 221
365 221
366 221
367 221
389 221
390 221
391 221
397 221
398 221
399 221
405 221
406 221
407 221
413 221
414 221
415 221
419 221
420 221
421 221
177 222
307 222
329 222
346 222
347 222
348 222
349 222
350 222
351 222
352 222
353 222
354 222
355 222
356 222
357 222
358 222
359 222
360 222
361 222
362 222
363 222
364 222
365 222
366 222
367 222
389 222
390 222
391 222
397 222
398 222
399 222
405 222
406 222
407 222
413 222
414 222
415 222
419 222
420 222
421 222
178 223
308 223
330 223
346 223
347 223
348 223
349 223
350 223
351 223
352 223
353 223
354 223
397 223
398 223
399 223
438 223
179 224
309 224
331 224
346 224
347 224
348 224
349 224
350 224
351 224
352 224
353 224
354 224
397 224
398 224
399 224
439 224
180 225
310 225
332 225
346 225
347 225
348 225
349 225
350 225
351 225
352 225
353 225
354 225
397 225
398 225
399 225
440 225
181 226
311 226
333 226
346 226
347 226
348 226
349 226
350 226
351 226
355 226
356 226
357 226
389 226
390 226
391 226
441 226
182 227
312 227
334 227
346 227
347 227
348 227
349 227
350 227
351 227
355 227
356 227
357 227
389 227
390 227
391 227
442 227
183 228
313 228
335 228
346 228
347 228
348 228
349 228
350 228
351 228
355 228
356 228
357 228
389 228
390 228
391 228
443 228
184 229
314 229
336 229
346 229
347 229
348 229
349 229
350 229
351 229
358 229
359 229
360 229
413 229
414 229
415 229
444 229
185 230
315 230
337 230
346 230
347 230
348 230
349 230
350 230
351 230
358 230
359 230
360 230
413 230
414 230
415 230
445 230
186 231
316 231
338 231
346 231
347 231
348 231
349 231
350 231
351 231
358 231
359 231
360 231
413 231
414 231
415 231
446 231
187 232
317 232
339 232
346 232
347 232
348 232
349 232
350 232
351 232
361 232
362 232
363 232
405 232
406 232
407 232
447 232
188 233
318 233
340 233
346 233
347 233
348 233
349 233
350 233
351 233
361 233
362 233
363 233
405 233
406 233
407 233
448 233
189 234
319 234
341 234
346 234
347 234
348 234
349 234
350 234
351 234
361 234
362 234
363 234
405 234
406 234
407 234
449 234
190 235
320 235
342 235
346 235
347 235
348 235
349 235
350 235
351 235
364 235
365 235
366 235
367 235
419 235
420 235
421 235
450 235
191 236
321 236
343 236
346 236
347 236
348 236
349 236
350 236
351 236
364 236
365 236
366 236
367 236
419 236
420 236
421 236
451 236
192 237
322 237
344 237
346 237
347 237
348 237
349 237
350 237
351 237
364 237
365 237
366 237
367 237
419 237
420 237
421 237
452 237
193 238
323 238
345 238
346 238
347 238
348 238
349 238
350 238
351 238
364 238
365 238
366 238
367 238
419 238
420 238
421 238
453 238
324 239
346 239
347 239
348 239
349 239
350 239
351 239
352 239
353 239
354 239
355 239
356 239
357 239
358 239
359 239
360 239
361 239
362 239
363 239
364 239
365 239
366 239
367 239
325 240
346 240
347 240
348 240
349 240
350 240
351 240
352 240
353 240
354 240
355 240
356 240
357 240
358 240
359 240
360 240
361 240
362 240
363 240
364 240
365 240
366 240
367 240
326 241
346 241
347 241
348 241
349 241
350 241
351 241
352 241
353 241
354 241
355 241
356 241
357 241
358 241
359 241
360 241
361 241
362 241
363 241
364 241
365 241
366 241
367 241
327 242
346 242
347 242
348 242
349 242
350 242
351 242
352 242
353 242
354 242
355 242
356 242
357 242
358 242
359 242
360 242
361 242
362 242
363 242
364 242
365 242
366 242
367 242
328 243
346 243
347 243
348 243
349 243
350 243
351 243
352 243
353 243
354 243
355 243
356 243
357 243
358 243
359 243
360 243
361 243
362 243
363 243
364 243
365 243
366 243
367 243
329 244
346 244
347 244
348 244
349 244
350 244
351 244
352 244
353 244
354 244
355 244
356 244
357 244
358 244
359 244
360 244
361 244
362 244
363 244
364 244
365 244
366 244
367 244
330 245
346 245
347 245
348 245
349 245
350 245
351 245
352 245
353 245
354 245
331 246
346 246
347 246
348 246
349 246
350 246
351 246
352 246
353 246
354 246
332 247
346 247
347 247
348 247
349 247
350 247
351 247
352 247
353 247
354 247
333 248
346 248
347 248
348 248
349 248
350 248
351 248
355 248
356 248
357 248
334 249
346 249
347 249
348 249
349 249
350 249
351 249
355 249
356 249
357 249
335 250
346 250
347 250
348 250
349 250
350 250
351 250
355 250
356 250
357 250
336 251
346 251
347 251
348 251
349 251
350 251
351 251
358 251
359 251
360 251
337 252
346 252
347 252
348 252
349 252
350 252
351 252
358 252
359 252
360 252
338 253
346 253
347 253
348 253
349 253
350 253
351 253
358 253
359 253
360 253
339 254
346 254
347 254
348 254
349 254
350 254
351 254
361 254
362 254
363 254
340 255
346 255
347 255
348 255
349 255
350 255
351 255
361 255
362 255
363 255
341 256
346 256
347 256
348 256
349 256
350 256
351 256
361 256
362 256
363 256
342 257
346 257
347 257
348 257
349 257
350 257
351 257
364 257
365 257
366 257
367 257
343 258
346 258
347 258
348 258
349 258
350 258
351 258
364 258
365 258
366 258
367 258
344 259
346 259
347 259
348 259
349 259
350 259
351 259
364 259
365 259
366 259
367 259
345 260
346 260
347 260
348 260
349 260
350 260
351 260
364 260
365 260
366 260
367 260
346 261
347 261
348 261
349 261
350 261
351 261
355 261
356 261
357 261
385 261
386 261
346 262
347 262
348 262
349 262
350 262
351 262
355 262
356 262
357 262
385 262
387 262
346 263
347 263
348 263
349 263
350 263
351 263
355 263
356 263
357 263
384 263
385 263
388 263
346 264
347 264
348 264
349 264
350 264
351 264
352 264
353 264
354 264
393 264
394 264
346 265
347 265
348 265
349 265
350 265
351 265
352 265
353 265
354 265
393 265
395 265
346 266
347 266
348 266
349 266
350 266
351 266
352 266
353 266
354 266
392 266
393 266
396 266
346 267
347 267
348 267
349 267
350 267
351 267
361 267
362 267
363 267
401 267
402 267
346 268
347 268
348 268
349 268
350 268
351 268
361 268
362 268
363 268
401 268
403 268
346 269
347 269
348 269
349 269
350 269
351 269
361 269
362 269
363 269
400 269
401 269
404 269
346 270
347 270
348 270
349 270
350 270
351 270
358 270
359 270
360 270
409 270
410 270
346 271
347 271
348 271
349 271
350 271
351 271
358 271
359 271
360 271
409 271
411 271
346 272
347 272
348 272
349 272
350 272
351 272
358 272
359 272
360 272
408 272
409 272
412 272
346 273
347 273
348 273
349 273
350 273
351 273
364 273
365 273
366 273
367 273
416 273
346 274
347 274
348 274
349 274
350 274
351 274
364 274
365 274
366 274
367 274
417 274
346 275
347 275
348 275
349 275
350 275
351 275
364 275
365 275
366 275
367 275
418 275
352 276
368 276
353 277
369 277
354 278
370 278
355 279
371 279
356 280
372 280
357 281
373 281
358 282
374 282
359 283
375 283
360 284
376 284
361 285
377 285
362 286
378 286
363 287
379 287
364 288
380 288
365 289
381 289
366 290
382 290
367 291
383 291
302 292
454 292
303 293
455 293
304 294
456 294
305 295
457 295
498 295
499 295
500 295
501 295
502 295
503 295
509 295
510 295
511 295
517 295
518 295
519 295
525 295
526 295
527 295
533 295
534 295
535 295
539 295
540 295
541 295
306 296
458 296
498 296
499 296
500 296
501 296
502 296
503 296
509 296
510 296
511 296
517 296
518 296
519 296
525 296
526 296
527 296
533 296
534 296
535 296
539 296
540 296
541 296
307 297
459 297
498 297
499 297
500 297
501 297
502 297
503 297
509 297
510 297
511 297
517 297
518 297
519 297
525 297
526 297
527 297
533 297
534 297
535 297
539 297
540 297
541 297
308 298
460 298
498 298
499 298
500 298
501 298
502 298
503 298
517 298
518 298
519 298
542 298
309 299
461 299
498 299
499 299
500 299
501 299
502 299
503 299
517 299
518 299
519 299
543 299
310 300
462 300
498 300
499 300
500 300
501 300
502 300
503 300
517 300
518 300
519 300
544 300
311 301
463 301
498 301
499 301
500 301
501 301
502 301
503 301
509 301
510 301
511 301
545 301
312 302
464 302
498 302
499 302
500 302
501 302
502 302
503 302
509 302
510 302
511 302
546 302
313 303
465 303
498 303
499 303
500 303
501 303
502 303
503 303
509 303
510 303
511 303
547 303
314 304
466 304
498 304
499 304
500 304
501 304
502 304
503 304
533 304
534 304
535 304
548 304
315 305
467 305
498 305
499 305
500 305
501 305
502 305
503 305
533 305
534 305
535 305
549 305
316 306
468 306
498 306
499 306
500 306
501 306
502 306
503 306
533 306
534 306
535 306
550 306
317 307
469 307
498 307
499 307
500 307
501 307
502 307
503 307
525 307
526 307
527 307
551 307
318 308
470 308
498 308
499 308
500 308
501 308
502 308
503 308
525 308
526 308
527 308
552 308
319 309
471 309
498 309
499 309
500 309
501 309
502 309
503 309
525 309
526 309
527 309
553 309
320 310
472 310
498 310
499 310
500 310
501 310
502 310
503 310
539 310
540 310
541 310
554 310
321 311
473 311
498 311
499 311
500 311
501 311
502 311
503 311
539 311
540 311
541 311
555 311
322 312
474 312
498 312
499 312
500 312
501 312
502 312
503 312
539 312
540 312
541 312
556 312
323 313
475 313
498 313
499 313
500 313
501 313
502 313
503 313
539 313
540 313
541 313
557 313
324 314
454 314
476 314
498 314
499 314
500 314
501 314
502 314
503 314
509 314
510 314
511 314
517 314
518 314
519 314
525 314
526 314
527 314
533 314
534 314
535 314
539 314
540 314
541 314
325 315
455 315
477 315
498 315
499 315
500 315
501 315
502 315
503 315
509 315
510 315
511 315
517 315
518 315
519 315
525 315
526 315
527 315
533 315
534 315
535 315
539 315
540 315
541 315
326 316
456 316
478 316
498 316
499 316
500 316
501 316
502 316
503 316
509 316
510 316
511 316
517 316
518 316
519 316
525 316
526 316
527 316
533 316
534 316
535 316
539 316
540 316
541 316
327 317
457 317
479 317
498 317
499 317
500 317
501 317
502 317
503 317
509 317
510 317
511 317
517 317
518 317
519 317
525 317
526 317
527 317
533 317
534 317
535 317
539 317
540 317
541 317
328 318
458 318
480 318
498 318
499 318
500 318
501 318
502 318
503 318
509 318
510 318
511 318
517 318
518 318
519 318
525 318
526 318
527 318
533 318
534 318
535 318
539 318
540 318
541 318
329 319
459 319
481 319
498 319
499 319
500 319
501 319
502 319
503 319
509 319
510 319
511 319
517 319
518 319
519 319
525 319
526 319
527 319
533 319
534 319
535 319
539 319
540 319
541 319
330 320
460 320
482 320
498 320
499 320
500 320
501 320
502 320
503 320
517 320
518 320
519 320
558 320
331 321
461 321
483 321
498 321
499 321
500 321
501 321
502 321
503 321
517 321
518 321
519 321
559 321
332 322
462 322
484 322
498 322
499 322
500 322
501 322
502 322
503 322
517 322
518 322
519 322
560 322
333 323
463 323
485 323
498 323
499 323
500 323
501 323
502 323
503 323
509 323
510 323
511 323
561 323
334 324
464 324
486 324
498 324
499 324
500 324
501 324
502 324
503 324
509 324
510 324
511 324
562 324
335 325
465 325
487 325
498 325
499 325
500 325
501 325
502 325
503 325
509 325
510 325
511 325
563 325
336 326
466 326
488 326
498 326
499 326
500 326
501 326
502 326
503 326
533 326
534 326
535 326
564 326
337 327
467 327
489 327
498 327
499 327
500 327
501 327
502 327
503 327
533 327
534 327
535 327
565 327
338 328
468 328
490 328
498 328
499 328
500 328
501 328
502 328
503 328
533 328
534 328
535 328
566 328
339 329
469 329
491 329
498 329
499 329
500 329
501 329
502 329
503 329
525 329
526 329
527 329
567 329
340 330
470 330
492 330
498 330
499 330
500 330
501 330
502 330
503 330
525 330
526 330
527 330
568 330
341 331
471 331
493 331
498 331
499 331
500 331
501 331
502 331
503 331
525 331
526 331
527 331
569 331
342 332
472 332
494 332
498 332
499 332
500 332
501 332
502 332
503 332
539 332
540 332
541 332
570 332
343 333
473 333
495 333
498 333
499 333
500 333
501 333
502 333
503 333
539 333
540 333
541 333
571 333
344 334
474 334
496 334
498 334
499 334
500 334
501 334
502 334
503 334
539 334
540 334
541 334
572 334
345 335
475 335
497 335
498 335
499 335
500 335
501 335
502 335
503 335
539 335
540 335
541 335
573 335
476 336
498 336
499 336
500 336
501 336
502 336
503 336
477 337
498 337
499 337
500 337
501 337
502 337
503 337
478 338
498 338
499 338
500 338
501 338
502 338
503 338
479 339
498 339
499 339
500 339
501 339
502 339
503 339
480 340
498 340
499 340
500 340
501 340
502 340
503 340
481 341
498 341
499 341
500 341
501 341
502 341
503 341
482 342
498 342
499 342
500 342
501 342
502 342
503 342
483 343
498 343
499 343
500 343
501 343
502 343
503 343
484 344
498 344
499 344
500 344
501 344
502 344
503 344
485 345
498 345
499 345
500 345
501 345
502 345
503 345
486 346
498 346
499 346
500 346
501 346
502 346
503 346
487 347
498 347
499 347
500 347
501 347
502 347
503 347
488 348
498 348
499 348
500 348
501 348
502 348
503 348
489 349
498 349
499 349
500 349
501 349
502 349
503 349
490 350
498 350
499 350
500 350
501 350
502 350
503 350
491 351
498 351
499 351
500 351
501 351
502 351
503 351
492 352
498 352
499 352
500 352
501 352
502 352
503 352
493 353
498 353
499 353
500 353
501 353
502 353
503 353
494 354
498 354
499 354
500 354
501 354
502 354
503 354
495 355
498 355
499 355
500 355
501 355
502 355
503 355
496 356
498 356
499 356
500 356
501 356
502 356
503 356
497 357
498 357
499 357
500 357
501 357
502 357
503 357
498 358
499 358
500 358
501 358
502 358
503 358
505 358
506 358
498 359
499 359
500 359
501 359
502 359
503 359
505 359
507 359
498 360
499 360
500 360
501 360
502 360
503 360
504 360
505 360
508 360
498 361
499 361
500 361
501 361
502 361
503 361
513 361
514 361
498 362
499 362
500 362
501 362
502 362
503 362
513 362
515 362
498 363
499 363
500 363
501 363
502 363
503 363
512 363
513 363
516 363
498 364
499 364
500 364
501 364
502 364
503 364
521 364
522 364
498 365
499 365
500 365
501 365
502 365
503 365
521 365
523 365
498 366
499 366
500 366
501 366
502 366
503 366
520 366
521 366
524 366
498 367
499 367
500 367
501 367
502 367
503 367
529 367
530 367
498 368
499 368
500 368
501 368
502 368
503 368
529 368
531 368
498 369
499 369
500 369
501 369
502 369
503 369
528 369
529 369
532 369
498 370
499 370
500 370
501 370
502 370
503 370
536 370
498 371
499 371
500 371
501 371
502 371
503 371
537 371
498 372
499 372
500 372
501 372
502 372
503 372
538 372
454 373
574 373
455 374
575 374
456 375
576 375
457 376
577 376
618 376
619 376
620 376
621 376
622 376
623 376
629 376
630 376
631 376
637 376
638 376
639 376
645 376
646 376
647 376
653 376
654 376
655 376
659 376
660 376
661 376
458 377
578 377
618 377
619 377
620 377
621 377
622 377
623 377
629 377
630 377
631 377
637 377
638 377
639 377
645 377
646 377
647 377
653 377
654 377
655 377
659 377
660 377
661 377
459 378
579 378
618 378
619 378
620 378
621 378
622 378
623 378
629 378
630 378
631 378
637 378
638 378
639 378
645 378
646 378
647 378
653 378
654 378
655 378
659 378
660 378
661 378
460 379
580 379
618 379
619 379
620 379
621 379
622 379
623 379
637 379
638 379
639 379
662 379
461 380
581 380
618 380
619 380
620 380
621 380
622 380
623 380
637 380
638 380
639 380
663 380
462 381
582 381
618 381
619 381
620 381
621 381
622 381
623 381
637 381
638 381
639 381
664 381
463 382
583 382
618 382
619 382
620 382
621 382
622 382
623 382
629 382
630 382
631 382
665 382
464 383
584 383
618 383
619 383
620 383
621 383
622 383
623 383
629 383
630 383
631 383
666 383
465 384
585 384
618 384
619 384
620 384
621 384
622 384
623 384
629 384
630 384
631 384
667 384
466 385
586 385
618 385
619 385
620 385
621 385
622 385
623 385
653 385
654 385
655 385
668 385
467 386
587 386
618 386
619 386
620 386
621 386
622 386
623 386
653 386
654 386
655 386
669 386
468 387
588 387
618 387
619 387
620 387
621 387
622 387
623 387
653 387
654 387
655 387
670 387
469 388
589 388
618 388
619 388
620 388
621 388
622 388
623 388
645 388
646 388
647 388
671 388
470 389
590 389
618 389
619 389
620 389
621 389
622 389
623 389
645 389
646 389
647 389
672 389
471 390
591 390
618 390
619 390
620 390
621 390
622 390
623 390
645 390
646 390
647 390
673 390
472 391
592 391
618 391
619 391
620 391
621 391
622 391
623 391
659 391
660 391
661 391
674 391
473 392
593 392
618 392
619 392
620 392
621 392
622 392
623 392
659 392
660 392
661 392
675 392
474 393
594 393
618 393
619 393
620 393
621 393
622 393
623 393
659 393
660 393
661 393
676 393
475 394
595 394
618 394
619 394
620 394
621 394
622 394
623 394
659 394
660 394
661 394
677 394
476 395
574 395
596 395
618 395
619 395
620 395
621 395
622 395
623 395
629 395
630 395
631 395
637 395
638 395
639 395
645 395
646 395
647 395
653 395
654 395
655 395
659 395
660 395
661 395
477 396
575 396
597 396
618 396
619 396
620 396
621 396
622 396
623 396
629 396
630 396
631 396
637 396
638 396
639 396
645 396
646 396
647 396
653 396
654 396
655 396
659 396
660 396
661 396
478 397
576 397
598 397
618 397
619 397
620 397
621 397
622 397
623 397
629 397
630 397
631 397
637 397
638 397
639 397
645 397
646 397
647 397
653 397
654 397
655 397
659 397
660 397
661 397
479 398
577 398
599 398
618 398
619 398
620 398
621 398
622 398
623 398
629 398
630 398
631 398
637 398
638 398
639 398
645 398
646 398
647 398
653 398
654 398
655 398
659 398
660 398
661 398
480 399
578 399
600 399
618 399
619 399
620 399
621 399
622 399
623 399
629 399
630 399
631 399
637 399
638 399
639 399
645 399
646 399
647 399
653 399
654 399
655 399
659 399
660 399
661 399
481 400
579 400
601 400
618 400
619 400
620 400
621 400
622 400
623 400
629 400
630 400
631 400
637 400
638 400
639 400
645 400
646 400
647 400
653 400
654 400
655 400
659 400
660 400
661 400
482 401
580 401
602 401
618 401
619 401
620 401
621 401
622 401
623 401
637 401
638 401
639 401
678 401
483 402
581 402
603 402
618 402
619 402
620 402
621 402
622 402
623 402
637 402
638 402
639 402
679 402
484 403
582 403
604 403
618 403
619 403
620 403
621 403
622 403
623 403
637 403
638 403
639 403
680 403
485 404
583 404
605 404
618 404
619 404
620 404
621 404
622 404
623 404
629 404
630 404
631 404
681 404
486 405
584 405
606 405
618 405
619 405
620 405
621 405
622 405
623 405
629 405
630 405
631 405
682 405
487 406
585 406
607 406
618 406
619 406
620 406
621 406
622 406
623 406
629 406
630 406
631 406
683 406
488 407
586 407
608 407
618 407
619 407
620 407
621 407
622 407
623 407
653 407
654 407
655 407
684 407
489 408
587 408
609 408
618 408
619 408
620 408
621 408
622 408
623 408
653 408
654 408
655 408
685 408
490 409
588 409
610 409
618 409
619 409
620 409
621 409
622 409
623 409
653 409
654 409
655 409
686 409
491 410
589 410
611 410
618 410
619 410
620 410
621 410
622 410
623 410
645 410
646 410
647 410
687 410
492 411
590 411
612 411
618 411
619 411
620 411
621 411
622 411
623 411
645 411
646 411
647 411
688 411
493 412
591 412
613 412
618 412
619 412
620 412
621 412
622 412
623 412
645 412
646 412
647 412
689 412
494 413
592 413
614 413
618 413
619 413
620 413
621 413
622 413
623 413
659 413
660 413
661 413
690 413
495 414
593 414
615 414
618 414
619 414
620 414
621 414
622 414
623 414
659 414
660 414
661 414
691 414
496 415
594 415
616 415
618 415
619 415
620 415
621 415
622 415
623 415
659 415
660 415
661 415
692 415
497 416
595 416
617 416
618 416
619 416
620 416
621 416
622 416
623 416
659 416
660 416
661 416
693 416
596 417
618 417
619 417
620 417
621 417
622 417
623 417
597 418
618 418
619 418
620 418
621 418
622 418
623 418
598 419
618 419
619 419
620 419
621 419
622 419
623 419
599 420
618 420
619 420
620 420
621 420
622 420
623 420
600 421
618 421
619 421
620 421
621 421
622 421
623 421
601 422
618 422
619 422
620 422
621 422
622 422
623 422
602 423
618 423
619 423
620 423
621 423
622 423
623 423
603 424
618 424
619 424
620 424
621 424
622 424
623 424
604 425
618 425
619 425
620 425
621 425
622 425
623 425
605 426
618 426
619 426
620 426
621 426
622 426
623 426
606 427
618 427
619 427
620 427
621 427
622 427
623 427
607 428
618 428
619 428
620 428
621 428
622 428
623 428
608 429
618 429
619 429
620 429
621 429
622 429
623 429
609 430
618 430
619 430
620 430
621 430
622 430
623 430
610 431
618 431
619 431
620 431
621 431
622 431
623 431
611 432
618 432
619 432
620 432
621 432
622 432
623 432
612 433
618 433
619 433
620 433
621 433
622 433
623 433
613 434
618 434
619 434
620 434
621 434
622 434
623 434
614 435
618 435
619 435
620 435
621 435
622 435
623 435
615 436
618 436
619 436
620 436
621 436
622 436
623 436
616 437
618 437
619 437
620 437
621 437
622 437
623 437
617 438
618 438
619 438
620 438
621 438
622 438
623 438
618 439
619 439
620 439
621 439
622 439
623 439
625 439
626 439
618 440
619 440
620 440
621 440
622 440
623 440
625 440
627 440
618 441
619 441
620 441
621 441
622 441
623 441
624 441
625 441
628 441
618 442
619 442
620 442
621 442
622 442
623 442
633 442
634 442
618 443
619 443
620 443
621 443
622 443
623 443
633 443
635 443
618 444
619 444
620 444
621 444
622 444
623 444
632 444
633 444
636 444
618 445
619 445
620 445
621 445
622 445
623 445
641 445
642 445
618 446
619 446
620 446
621 446
622 446
623 446
641 446
643 446
618 447
619 447
620 447
621 447
622 447
623 447
640 447
641 447
644 447
618 448
619 448
620 448
621 448
622 448
623 448
649 448
650 448
618 449
619 449
620 449
621 449
622 449
623 449
649 449
651 449
618 450
619 450
620 450
621 450
622 450
623 450
648 450
649 450
652 450
618 451
619 451
620 451
621 451
622 451
623 451
656 451
618 452
619 452
620 452
621 452
622 452
623 452
657 452
618 453
619 453
620 453
621 453
622 453
623 453
658 453
574 454
694 454
575 455
695 455
576 456
696 456
577 457
697 457
738 457
739 457
740 457
741 457
742 457
743 457
749 457
750 457
751 457
757 457
758 457
759 457
765 457
766 457
767 457
773 457
774 457
775 457
779 457
780 457
781 457
578 458
698 458
738 458
739 458
740 458
741 458
742 458
743 458
749 458
750 458
751 458
757 458
758 458
759 458
765 458
766 458
767 458
773 458
774 458
775 458
779 458
780 458
781 458
579 459
699 459
738 459
739 459
740 459
741 459
742 459
743 459
749 459
750 459
751 459
757 459
758 459
759 459
765 459
766 459
767 459
773 459
774 459
775 459
779 459
780 459
781 459
580 460
700 460
738 460
739 460
740 460
741 460
742 460
743 460
757 460
758 460
759 460
782 460
581 461
701 461
738 461
739 461
740 461
741 461
742 461
743 461
757 461
758 461
759 461
783 461
582 462
702 462
738 462
739 462
740 462
741 462
742 462
743 462
757 462
758 462
759 462
784 462
583 463
703 463
738 463
739 463
740 463
741 463
742 463
743 463
749 463
750 463
751 463
785 463
584 464
704 464
738 464
739 464
740 464
741 464
742 464
743 464
749 464
750 464
751 464
786 464
585 465
705 465
738 465
739 465
740 465
741 465
742 465
743 465
749 465
750 465
751 465
787 465
586 466
706 466
738 466
739 466
740 466
741 466
742 466
743 466
773 466
774 466
775 466
788 466
587 467
707 467
738 467
739 467
740 467
741 467
742 467
743 467
773 467
774 467
775 467
789 467
588 468
708 468
738 468
739 468
740 468
741 468
742 468
743 468
773 468
774 468
775 468
790 468
589 469
709 469
738 469
739 469
740 469
741 469
742 469
743 469
765 469
766 469
767 469
791 469
590 470
710 470
738 470
739 470
740 470
741 470
742 470
743 470
765 470
766 470
767 470
792 470
591 471
711 471
738 471
739 471
740 471
741 471
742 471
743 471
765 471
766 471
767 471
793 471
592 472
712 472
738 472
739 472
740 472
741 472
742 472
743 472
779 472
780 472
781 472
794 472
593 473
713 473
738 473
739 473
740 473
741 473
742 473
743 473
779 473
780 473
781 473
795 473
594 474
714 474
738 474
739 474
740 474
741 474
742 474
743 474
779 474
780 474
781 474
796 474
595 475
715 475
738 475
739 475
740 475
741 475
742 475
743 475
779 475
780 475
781 475
797 475
596 476
694 476
716 476
738 476
739 476
740 476
741 476
742 476
743 476
749 476
750 476
751 476
757 476
758 476
759 476
765 476
766 476
767 476
773 476
774 476
775 476
779 476
780 476
781 476
597 477
695 477
717 477
738 477
739 477
740 477
741 477
742 477
743 477
749 477
750 477
751 477
757 477
758 477
759 477
765 477
766 477
767 477
773 477
774 477
775 477
779 477
780 477
781 477
598 478
696 478
718 478
738 478
739 478
740 478
741 478
742 478
743 478
749 478
750 478
751 478
757 478
758 478
759 478
765 478
766 478
767 478
773 478
774 478
775 478
779 478
780 478
781 478
599 479
697 479
719 479
738 479
739 479
740 479
741 479
742 479
743 479
749 479
750 479
751 479
757 479
758 479
759 479
765 479
766 479
767 479
773 479
774 479
775 479
779 479
780 479
781 479
600 480
698 480
720 480
738 480
739 480
740 480
741 480
742 480
743 480
749 480
750 480
751 480
757 480
758 480
759 480
765 480
766 480
767 480
773 480
774 480
775 480
779 480
780 480
781 480
601 481
699 481
721 481
738 481
739 481
740 481
741 481
742 481
743 481
749 481
750 481
751 481
757 481
758 481
759 481
765 481
766 481
767 481
773 481
774 481
775 481
779 481
780 481
781 481
602 482
700 482
722 482
738 482
739 482
740 482
741 482
742 482
743 482
757 482
758 482
759 482
798 482
603 483
701 483
723 483
738 483
739 483
740 483
741 483
742 483
743 483
757 483
758 483
759 483
799 483
604 484
702 484
724 484
738 484
739 484
740 484
741 484
742 484
743 484
757 484
758 484
759 484
800 484
605 485
703 485
725 485
738 485
739 485
740 485
741 485
742 485
743 485
749 485
750 485
751 485
801 485
606 486
704 486
726 486
738 486
739 486
740 486
741 486
742 486
743 486
749 486
750 486
751 486
802 486
607 487
705 487
727 487
738 487
739 487
740 487
741 487
742 487
743 487
749 487
750 487
751 487
803 487
608 488
706 488
728 488
738 488
739 488
740 488
741 488
742 488
743 488
773 488
774 488
775 488
804 488
609 489
707 489
729 489
738 489
739 489
740 489
741 489
742 489
743 489
773 489
774 489
775 489
805 489
610 490
708 490
730 490
738 490
739 490
740 490
741 490
742 490
743 490
773 490
774 490
775 490
806 490
611 491
709 491
731 491
738 491
739 491
740 491
741 491
742 491
743 491
765 491
766 491
767 491
807 491
612 492
710 492
732 492
738 492
739 492
740 492
741 492
742 492
743 492
765 492
766 492
767 492
808 492
613 493
711 493
733 493
738 493
739 493
740 493
741 493
742 493
743 493
765 493
766 493
767 493
809 493
614 494
712 494
734 494
738 494
739 494
740 494
741 494
742 494
743 494
779 494
780 494
781 494
810 494
615 495
713 495
735 495
738 495
739 495
740 495
741 495
742 495
743 495
779 495
780 495
781 495
811 495
616 496
714 496
736 496
738 496
739 496
740 496
741 496
742 496
743 496
779 496
780 496
781 496
812 496
617 497
715 497
737 497
738 497
739 497
740 497
741 497
742 497
743 497
779 497
780 497
781 497
813 497
716 498
738 498
739 498
740 498
741 498
742 498
743 498
717 499
738 499
739 499
740 499
741 499
742 499
743 499
718 500
738 500
739 500
740 500
741 500
742 500
743 500
719 501
738 501
739 501
740 501
741 501
742 501
743 501
720 502
738 502
739 502
740 502
741 502
742 502
743 502
721 503
738 503
739 503
740 503
741 503
742 503
743 503
722 504
738 504
739 504
740 504
741 504
742 504
743 504
723 505
738 505
739 505
740 505
741 505
742 505
743 505
724 506
738 506
739 506
740 506
741 506
742 506
743 506
725 507
738 507
739 507
740 507
741 507
742 507
743 507
726 508
738 508
739 508
740 508
741 508
742 508
743 508
727 509
738 509
739 509
740 509
741 509
742 509
743 509
728 510
738 510
739 510
740 510
741 510
742 510
743 510
729 511
738 511
739 511
740 511
741 511
742 511
743 511
730 512
738 512
739 512
740 512
741 512
742 512
743 512
731 513
738 513
739 513
740 513
741 513
742 513
743 513
732 514
738 514
739 514
740 514
741 514
742 514
743 514
733 515
738 515
739 515
740 515
741 515
742 515
743 515
734 516
738 516
739 516
740 516
741 516
742 516
743 516
735 517
738 517
739 517
740 517
741 517
742 517
743 517
736 518
738 518
739 518
740 518
741 518
742 518
743 518
737 519
738 519
739 519
740 519
741 519
742 519
743 519
738 520
739 520
740 520
741 520
742 520
743 520
745 520
746 520
738 521
739 521
740 521
741 521
742 521
743 521
745 521
747 521
738 522
739 522
740 522
741 522
742 522
743 522
744 522
745 522
748 522
738 523
739 523
740 523
741 523
742 523
743 523
753 523
754 523
738 524
739 524
740 524
741 524
742 524
743 524
753 524
755 524
738 525
739 525
740 525
741 525
742 525
743 525
752 525
753 525
756 525
738 526
739 526
740 526
741 526
742 526
743 526
761 526
762 526
738 527
739 527
740 527
741 527
742 527
743 527
761 527
763 527
738 528
739 528
740 528
741 528
742 528
743 528
760 528
761 528
764 528
738 529
739 529
740 529
741 529
742 529
743 529
769 529
770 529
738 530
739 530
740 530
741 530
742 530
743 530
769 530
771 530
738 531
739 531
740 531
741 531
742 531
743 531
768 531
769 531
772 531
738 532
739 532
740 532
741 532
742 532
743 532
776 532
738 533
739 533
740 533
741 533
742 533
743 533
777 533
738 534
739 534
740 534
741 534
742 534
743 534
778 534
694 535
814 535
695 536
815 536
696 537
816 537
697 538
817 538
858 538
859 538
860 538
861 538
862 538
863 538
869 538
870 538
871 538
877 538
878 538
879 538
885 538
886 538
887 538
893 538
894 538
895 538
899 538
900 538
901 538
698 539
818 539
858 539
859 539
860 539
861 539
862 539
863 539
869 539
870 539
871 539
877 539
878 539
879 539
885 539
886 539
887 539
893 539
894 539
895 539
899 539
900 539
901 539
699 540
819 540
858 540
859 540
860 540
861 540
862 540
863 540
869 540
870 540
871 540
877 540
878 540
879 540
885 540
886 540
887 540
893 540
894 540
895 540
899 540
900 540
901 540
700 541
820 541
858 541
859 541
860 541
861 541
862 541
863 541
877 541
878 541
879 541
902 541
701 542
821 542
858 542
859 542
860 542
861 542
862 542
863 542
877 542
878 542
879 542
903 542
702 543
822 543
858 543
859 543
860 543
861 543
862 543
863 543
877 543
878 543
879 543
904 543
703 544
823 544
858 544
859 544
860 544
861 544
862 544
863 544
869 544
870 544
871 544
905 544
704 545
824 545
858 545
859 545
860 545
861 545
862 545
863 545
869 545
870 545
871 545
906 545
705 546
825 546
858 546
859 546
860 546
861 546
862 546
863 546
869 546
870 546
871 546
907 546
706 547
826 547
858 547
859 547
860 547
861 547
862 547
863 547
893 547
894 547
895 547
908 547
707 548
827 548
858 548
859 548
860 548
861 548
862 548
863 548
893 548
894 548
895 548
909 548
708 549
828 549
858 549
859 549
860 549
861 549
862 549
863 549
893 549
894 549
895 549
910 549
709 550
829 550
858 550
859 550
860 550
861 550
862 550
863 550
885 550
886 550
887 550
911 550
710 551
830 551
858 551
859 551
860 551
861 551
862 551
863 551
885 551
886 551
887 551
912 551
711 552
831 552
858 552
859 552
860 552
861 552
862 552
863 552
885 552
886 552
887 552
913 552
712 553
832 553
858 553
859 553
860 553
861 553
862 553
863 553
899 553
900 553
901 553
914 553
713 554
833 554
858 554
859 554
860 554
861 554
862 554
863 554
899 554
900 554
901 554
915 554
714 555
834 555
858 555
859 555
860 555
861 555
862 555
863 555
899 555
900 555
901 555
916 555
715 556
835 556
858 556
859 556
860 556
861 556
862 556
863 556
899 556
900 556
901 556
917 556
716 557
814 557
836 557
858 557
859 557
860 557
861 557
862 557
863 557
869 557
870 557
871 557
877 557
878 557
879 557
885 557
886 557
887 557
893 557
894 557
895 557
899 557
900 557
901 557
717 558
815 558
837 558
858 558
859 558
860 558
861 558
862 558
863 558
869 558
870 558
871 558
877 558
878 558
879 558
885 558
886 558
887 558
893 558
894 558
895 558
899 558
900 558
901 558
718 559
816 559
838 559
858 559
859 559
860 559
861 559
862 559
863 559
869 559
870 559
871 559
877 559
878 559
879 559
885 559
886 559
887 559
893 559
894 559
895 559
899 559
900 559
901 559
719 560
817 560
839 560
858 560
859 560
860 560
861 560
862 560
863 560
869 560
870 560
871 560
877 560
878 560
879 560
885 560
886 560
887 560
893 560
894 560
895 560
899 560
900 560
901 560
720 561
818 561
840 561
858 561
859 561
860 561
861 561
862 561
863 561
869 561
870 561
871 561
877 561
878 561
879 561
885 561
886 561
887 561
893 561
894 561
895 561
899 561
900 561
901 561
721 562
819 562
841 562
858 562
859 562
860 562
861 562
862 562
863 562
869 562
870 562
871 562
877 562
878 562
879 562
885 562
886 562
887 562
893 562
894 562
895 562
899 562
900 562
901 562
722 563
820 563
842 563
858 563
859 563
860 563
861 563
862 563
863 563
877 563
878 563
879 563
918 563
723 564
821 564
843 564
858 564
859 564
860 564
861 564
862 564
863 564
877 564
878 564
879 564
919 564
724 565
822 565
844 565
858 565
859 565
860 565
861 565
862 565
863 565
877 565
878 565
879 565
920 565
725 566
823 566
845 566
858 566
859 566
860 566
861 566
862 566
863 566
869 566
870 566
871 566
921 566
726 567
824 567
846 567
858 567
859 567
860 567
861 567
862 567
863 567
869 567
870 567
871 567
922 567
727 568
825 568
847 568
858 568
859 568
860 568
861 568
862 568
863 568
869 568
870 568
871 568
923 568
728 569
826 569
848 569
858 569
859 569
860 569
861 569
862 569
863 569
893 569
894 569
895 569
924 569
729 570
827 570
849 570
858 570
859 570
860 570
861 570
862 570
863 570
893 570
894 570
895 570
925 570
730 571
828 571
850 571
858 571
859 571
860 571
861 571
862 571
863 571
893 571
894 571
895 571
926 571
731 572
829 572
851 572
858 572
859 572
860 572
861 572
862 572
863 572
885 572
886 572
887 572
927 572
732 573
830 573
852 573
858 573
859 573
860 573
861 573
862 573
863 573
885 573
886 573
887 573
928 573
733 574
831 574
853 574
858 574
859 574
860 574
861 574
862 574
863 574
885 574
886 574
887 574
929 574
734 575
832 575
854 575
858 575
859 575
860 575
861 575
862 575
863 575
899 575
900 575
901 575
930 575
735 576
833 576
855 576
858 576
859 576
860 576
861 576
862 576
863 576
899 576
900 576
901 576
931 576
736 577
834 577
856 577
858 577
859 577
860 577
861 577
862 577
863 577
899 577
900 577
901 577
932 577
737 578
835 578
857 578
858 578
859 578
860 578
861 578
862 578
863 578
899 578
900 578
901 578
933 578
836 579
858 579
859 579
860 579
861 579
862 579
863 579
837 580
858 580
859 580
860 580
861 580
862 580
863 580
838 581
858 581
859 581
860 581
861 581
862 581
863 581
839 582
858 582
859 582
860 582
861 582
862 582
863 582
840 583
858 583
859 583
860 583
861 583
862 583
863 583
841 584
858 584
859 584
860 584
861 584
862 584
863 584
842 585
858 585
859 585
860 585
861 585
862 585
863 585
843 586
858 586
859 586
860 586
861 586
862 586
863 586
844 587
858 587
859 587
860 587
861 587
862 587
863 587
845 588
858 588
859 588
860 588
861 588
862 588
863 588
846 589
858 589
859 589
860 589
861 589
862 589
863 589
847 590
858 590
859 590
860 590
861 590
862 590
863 590
848 591
858 591
859 591
860 591
861 591
862 591
863 591
849 592
858 592
859 592
860 592
861 592
862 592
863 592
850 593
858 593
859 593
860 593
861 593
862 593
863 593
851 594
858 594
859 594
860 594
861 594
862 594
863 594
852 595
858 595
859 595
860 595
861 595
862 595
863 595
853 596
858 596
859 596
860 596
861 596
862 596
863 596
854 597
858 597
859 597
860 597
861 597
862 597
863 597
855 598
858 598
859 598
860 598
861 598
862 598
863 598
856 599
858 599
859 599
860 599
861 599
862 599
863 599
857 600
858 600
859 600
860 600
861 600
862 600
863 600
858 601
859 601
860 601
861 601
862 601
863 601
865 601
866 601
858 602
859 602
860 602
861 602
862 602
863 602
865 602
867 602
858 603
859 603
860 603
861 603
862 603
863 603
864 603
865 603
868 603
858 604
859 604
860 604
861 604
862 604
863 604
873 604
874 604
858 605
859 605
860 605
861 605
862 605
863 605
873 605
875 605
858 606
859 606
860 606
861 606
862 606
863 606
872 606
873 606
876 606
858 607
859 607
860 607
861 607
862 607
863 607
881 607
882 607
858 608
859 608
860 608
861 608
862 608
863 608
881 608
883 608
858 609
859 609
860 609
861 609
862 609
863 609
880 609
881 609
884 609
858 610
859 610
860 610
861 610
862 610
863 610
889 610
890 610
858 611
859 611
860 611
861 611
862 611
863 611
889 611
891 611
858 612
859 612
860 612
861 612
862 612
863 612
888 612
889 612
892 612
858 613
859 613
860 613
861 613
862 613
863 613
896 613
858 614
859 614
860 614
861 614
862 614
863 614
897 614
858 615
859 615
860 615
861 615
862 615
863 615
898 615
814 616
934 616
815 617
935 617
816 618
936 618
817 619
937 619
978 619
979 619
980 619
981 619
982 619
983 619
989 619
990 619
991 619
997 619
998 619
999 619
1005 619
1006 619
1007 619
1013 619
1014 619
1015 619
1019 619
1020 619
1021 619
818 620
938 620
978 620
979 620
980 620
981 620
982 620
983 620
989 620
990 620
991 620
997 620
998 620
999 620
1005 620
1006 620
1007 620
1013 620
1014 620
1015 620
1019 620
1020 620
1021 620
819 621
939 621
978 621
979 621
980 621
981 621
982 621
983 621
989 621
990 621
991 621
997 621
998 621
999 621
1005 621
1006 621
1007 621
1013 621
1014 621
1015 621
1019 621
1020 621
1021 621
820 622
940 622
978 622
979 622
980 622
981 622
982 622
983 622
997 622
998 622
999 622
1022 622
821 623
941 623
978 623
979 623
980 623
981 623
982 623
983 623
997 623
998 623
999 623
1023 623
822 624
942 624
978 624
979 624
980 624
981 624
982 624
983 624
997 624
998 624
999 624
1024 624
823 625
943 625
978 625
979 625
980 625
981 625
982 625
983 625
989 625
990 625
991 625
1025 625
824 626
944 626
978 626
979 626
980 626
981 626
982 626
983 626
989 626
990 626
991 626
1026 626
825 627
945 627
978 627
979 627
980 627
981 627
982 627
983 627
989 627
990 627
991 627
1027 627
826 628
946 628
978 628
979 628
980 628
981 628
982 628
983 628
1013 628
1014 628
1015 628
1028 628
827 629
947 629
978 629
979 629
980 629
981 629
982 629
983 629
1013 629
1014 629
1015 629
1029 629
828 630
948 630
978 630
979 630
980 630
981 630
982 630
983 630
1013 630
1014 630
1015 630
1030 630
829 631
949 631
978 631
979 631
980 631
981 631
982 631
983 631
1005 631
1006 631
1007 631
1031 631
830 632
950 632
978 632
979 632
980 632
981 632
982 632
983 632
1005 632
1006 632
1007 632
1032 632
831 633
951 633
978 633
979 633
980 633
981 633
982 633
983 633
1005 633
1006 633
1007 633
1033 633
832 634
952 634
978 634
979 634
980 634
981 634
982 634
983 634
1019 634
1020 634
1021 634
1034 634
833 635
953 635
978 635
979 635
980 635
981 635
982 635
983 635
1019 635
1020 635
1021 635
1035 635
834 636
954 636
978 636
979 636
980 636
981 636
982 636
983 636
1019 636
1020 636
1021 636
1036 636
835 637
955 637
978 637
979 637
980 637
981 637
982 637
983 637
1019 637
1020 637
1021 637
1037 637
836 638
934 638
956 638
978 638
979 638
980 638
981 638
982 638
983 638
989 638
990 638
991 638
997 638
998 638
999 638
1005 638
1006 638
1007 638
1013 638
1014 638
1015 638
1019 638
1020 638
1021 638
837 639
935 639
957 639
978 639
979 639
980 639
981 639
982 639
983 639
989 639
990 639
991 639
997 639
998 639
999 639
1005 639
1006 639
1007 639
1013 639
1014 639
1015 639
1019 639
1020 639
1021 639
838 640
936 640
958 640
978 640
979 640
980 640
981 640
982 640
983 640
989 640
990 640
991 640
997 640
998 640
999 640
1005 640
1006 640
1007 640
1013 640
1014 640
1015 640
1019 640
1020 640
1021 640
839 641
937 641
959 641
978 641
979 641
980 641
981 641
982 641
983 641
989 641
990 641
991 641
997 641
998 641
999 641
1005 641
1006 641
1007 641
1013 641
1014 641
1015 641
1019 641
1020 641
1021 641
840 642
938 642
960 642
978 642
979 642
980 642
981 642
982 642
983 642
989 642
990 642
991 642
997 642
998 642
999 642
1005 642
1006 642
1007 642
1013 642
1014 642
1015 642
1019 642
1020 642
1021 642
841 643
939 643
961 643
978 643
979 643
980 643
981 643
982 643
983 643
989 643
990 643
991 643
997 643
998 643
999 643
1005 643
1006 643
1007 643
1013 643
1014 643
1015 643
1019 643
1020 643
1021 643
842 644
940 644
962 644
978 644
979 644
980 644
981 644
982 644
983 644
997 644
998 644
999 644
1038 644
843 645
941 645
963 645
978 645
979 645
980 645
981 645
982 645
983 645
997 645
998 645
999 645
1039 645
844 646
942 646
964 646
978 646
979 646
980 646
981 646
982 646
983 646
997 646
998 646
999 646
1040 646
845 647
943 647
965 647
978 647
979 647
980 647
981 647
982 647
983 647
989 647
990 647
991 647
1041 647
846 648
944 648
966 648
978 648
979 648
980 648
981 648
982 648
983 648
989 648
990 648
991 648
1042 648
847 649
945 649
967 649
978 649
979 649
980 649
981 649
982 649
983 649
989 649
990 649
991 649
1043 649
848 650
946 650
968 650
978 650
979 650
980 650
981 650
982 650
983 650
1013 650
1014 650
1015 650
1044 650
849 651
947 651
969 651
978 651
979 651
980 651
981 651
982 651
983 651
1013 651
1014 651
1015 651
1045 651
850 652
948 652
970 652
978 652
979 652
980 652
981 652
982 652
983 652
1013 652
1014 652
1015 652
1046 652
851 653
949 653
971 653
978 653
979 653
980 653
981 653
982 653
983 653
1005 653
1006 653
1007 653
1047 653
852 654
950 654
972 654
978 654
979 654
980 654
981 654
982 654
983 654
1005 654
1006 654
1007 654
1048 654
853 655
951 655
973 655
978 655
979 655
980 655
981 655
982 655
983 655
1005 655
1006 655
1007 655
1049 655
854 656
952 656
974 656
978 656
979 656
980 656
981 656
982 656
983 656
1019 656
1020 656
1021 656
1050 656
855 657
953 657
975 657
978 657
979 657
980 657
981 657
982 657
983 657
1019 657
1020 657
1021 657
1051 657
856 658
954 658
976 658
978 658
979 658
980 658
981 658
982 658
983 658
1019 658
1020 658
1021 658
1052 658
857 659
955 659
977 659
978 659
979 659
980 659
981 659
982 659
983 659
1019 659
1020 659
1021 659
1053 659
956 660
978 660
979 660
980 660
981 660
982 660
983 660
957 661
978 661
979 661
980 661
981 661
982 661
983 661
958 662
978 662
979 662
980 662
981 662
982 662
983 662
959 663
978 663
979 663
980 663
981 663
982 663
983 663
960 664
978 664
979 664
980 664
981 664
982 664
983 664
961 665
978 665
979 665
980 665
981 665
982 665
983 665
962 666
978 666
979 666
980 666
981 666
982 666
983 666
963 667
978 667
979 667
980 667
981 667
982 667
983 667
964 668
978 668
979 668
980 668
981 668
982 668
983 668
965 669
978 669
979 669
980 669
981 669
982 669
983 669
966 670
978 670
979 670
980 670
981 670
982 670
983 670
967 671
978 671
979 671
980 671
981 671
982 671
983 671
968 672
978 672
979 672
980 672
981 672
982 672
983 672
969 673
978 673
979 673
980 673
981 673
982 673
983 673
970 674
978 674
979 674
980 674
981 674
982 674
983 674
971 675
978 675
979 675
980 675
981 675
982 675
983 675
972 676
978 676
979 676
980 676
981 676
982 676
983 676
973 677
978 677
979 677
980 677
981 677
982 677
983 677
974 678
978 678
979 678
980 678
981 678
982 678
983 678
975 679
978 679
979 679
980 679
981 679
982 679
983 679
976 680
978 680
979 680
980 680
981 680
982 680
983 680
977 681
978 681
979 681
980 681
981 681
982 681
983 681
978 682
979 682
980 682
981 682
982 682
983 682
985 682
986 682
978 683
979 683
980 683
981 683
982 683
983 683
985 683
987 683
978 684
979 684
980 684
981 684
982 684
983 684
984 684
985 684
988 684
978 685
979 685
980 685
981 685
982 685
983 685
993 685
994 685
978 686
979 686
980 686
981 686
982 686
983 686
993 686
995 686
978 687
979 687
980 687
981 687
982 687
983 687
992 687
993 687
996 687
978 688
979 688
980 688
981 688
982 688
983 688
1001 688
1002 688
978 689
979 689
980 689
981 689
982 689
983 689
1001 689
1003 689
978 690
979 690
980 690
981 690
982 690
983 690
1000 690
1001 690
1004 690
978 691
979 691
980 691
981 691
982 691
983 691
1009 691
1010 691
978 692
979 692
980 692
981 692
982 692
983 692
1009 692
1011 692
978 693
979 693
980 693
981 693
982 693
983 693
1008 693
1009 693
1012 693
978 694
979 694
980 694
981 694
982 694
983 694
1016 694
978 695
979 695
980 695
981 695
982 695
983 695
1017 695
978 696
979 696
980 696
981 696
982 696
983 696
1018 696
934 697
1054 697
935 698
1055 698
936 699
1056 699
937 700
1057 700
1098 700
1099 700
1100 700
1101 700
1102 700
1103 700
1109 700
1110 700
1111 700
1117 700
1118 700
1119 700
1125 700
1126 700
1127 700
1133 700
1134 700
1135 700
1139 700
1140 700
1141 700
938 701
1058 701
1098 701
1099 701
1100 701
1101 701
1102 701
1103 701
1109 701
1110 701
1111 701
1117 701
1118 701
1119 701
1125 701
1126 701
1127 701
1133 701
1134 701
1135 701
1139 701
1140 701
1141 701
939 702
1059 702
1098 702
1099 702
1100 702
1101 702
1102 702
1103 702
1109 702
1110 702
1111 702
1117 702
1118 702
1119 702
1125 702
1126 702
1127 702
1133 702
1134 702
1135 702
1139 702
1140 702
1141 702
940 703
1060 703
1098 703
1099 703
1100 703
1101 703
1102 703
1103 703
1117 703
1118 703
1119 703
1142 703
941 704
1061 704
1098 704
1099 704
1100 704
1101 704
1102 704
1103 704
1117 704
1118 704
1119 704
1143 704
942 705
1062 705
1098 705
1099 705
1100 705
1101 705
1102 705
1103 705
1117 705
1118 705
1119 705
1144 705
943 706
1063 706
1098 706
1099 706
1100 706
1101 706
1102 706
1103 706
1109 706
1110 706
1111 706
1145 706
944 707
1064 707
1098 707
1099 707
1100 707
1101 707
1102 707
1103 707
1109 707
1110 707
1111 707
1146 707
945 708
1065 708
1098 708
1099 708
1100 708
1101 708
1102 708
1103 708
1109 708
1110 708
1111 708
1147 708
946 709
1066 709
1098 709
1099 709
1100 709
1101 709
1102 709
1103 709
1133 709
1134 709
1135 709
1148 709
947 710
1067 710
1098 710
1099 710
1100 710
1101 710
1102 710
1103 710
1133 710
1134 710
1135 710
1149 710
948 711
1068 711
1098 711
1099 711
1100 711
1101 711
1102 711
1103 711
1133 711
1134 711
1135 711
1150 711
949 712
1069 712
1098 712
1099 712
1100 712
1101 712
1102 712
1103 712
1125 712
1126 712
1127 712
1151 712
950 713
1070 713
1098 713
1099 713
1100 713
1101 713
1102 713
1103 713
1125 713
1126 713
1127 713
1152 713
951 714
1071 714
1098 714
1099 714
1100 714
1101 714
1102 714
1103 714
1125 714
1126 714
1127 714
1153 714
952 715
1072 715
1098 715
1099 715
1100 715
1101 715
1102 715
1103 715
1139 715
1140 715
1141 715
1154 715
953 716
1073 716
1098 716
1099 716
1100 716
1101 716
1102 716
1103 716
1139 716
1140 716
1141 716
1155 716
954 717
1074 717
1098 717
1099 717
1100 717
1101 717
1102 717
1103 717
1139 717
1140 717
1141 717
1156 717
955 718
1075 718
1098 718
1099 718
1100 718
1101 718
1102 718
1103 718
1139 718
1140 718
1141 718
1157 718
956 719
1054 719
1076 719
1098 719
1099 719
1100 719
1101 719
1102 719
1103 719
1109 719
1110 719
1111 719
1117 719
1118 719
1119 719
1125 719
1126 719
1127 719
1133 719
1134 719
1135 719
1139 719
1140 719
1141 719
957 720
1055 720
1077 720
1098 720
1099 720
1100 720
1101 720
1102 720
1103 720
1109 720
1110 720
1111 720
1117 720
1118 720
1119 720
1125 720
1126 720
1127 720
1133 720
1134 720
1135 720
1139 720
1140 720
1141 720
958 721
1056 721
1078 721
1098 721
1099 721
1100 721
1101 721
1102 721
1103 721
1109 721
1110 721
1111 721
1117 721
1118 721
1119 721
1125 721
1126 721
1127 721
1133 721
1134 721
1135 721
1139 721
1140 721
1141 721
959 722
1057 722
1079 722
1098 722
1099 722
1100 722
1101 722
1102 722
1103 722
1109 722
1110 722
1111 722
1117 722
1118 722
1119 722
1125 722
1126 722
1127 722
1133 722
1134 722
1135 722
1139 722
1140 722
1141 722
960 723
1058 723
1080 723
1098 723
1099 723
1100 723
1101 723
1102 723
1103 723
1109 723
1110 723
1111 723
1117 723
1118 723
1119 723
1125 723
1126 723
1127 723
1133 723
1134 723
1135 723
1139 723
1140 723
1141 723
961 724
1059 724
1081 724
1098 724
1099 724
1100 724
1101 724
1102 724
1103 724
1109 724
1110 724
1111 724
1117 724
1118 724
1119 724
1125 724
1126 724
1127 724
1133 724
1134 724
1135 724
1139 724
1140 724
1141 724
962 725
1060 725
1082 725
1098 725
1099 725
1100 725
1101 725
1102 725
1103 725
1117 725
1118 725
1119 725
1158 725
963 726
1061 726
1083 726
1098 726
1099 726
1100 726
1101 726
1102 726
1103 726
1117 726
1118 726
1119 726
1159 726
964 727
1062 727
1084 727
1098 727
1099 727
1100 727
1101 727
1102 727
1103 727
1117 727
1118 727
1119 727
1160 727
965 728
1063 728
1085 728
1098 728
1099 728
1100 728
1101 728
1102 728
1103 728
1109 728
1110 728
1111 728
1161 728
966 729
1064 729
1086 729
1098 729
1099 729
1100 729
1101 729
1102 729
1103 729
1109 729
1110 729
1111 729
1162 729
967 730
1065 730
1087 730
1098 730
1099 730
1100 730
1101 730
1102 730
1103 730
1109 730
1110 730
1111 730
1163 730
968 731
1066 731
1088 731
1098 731
1099 731
1100 731
1101 731
1102 731
1103 731
1133 731
1134 731
1135 731
1164 731
969 732
1067 732
1089 732
1098 732
1099 732
1100 732
1101 732
1102 732
1103 732
1133 732
1134 732
1135 732
1165 732
970 733
1068 733
1090 733
1098 733
1099 733
1100 733
1101 733
1102 733
1103 733
1133 733
1134 733
1135 733
1166 733
971 734
1069 734
1091 734
1098 734
1099 734
1100 734
1101 734
1102 734
1103 734
1125 734
1126 734
1127 734
1167 734
972 735
1070 735
1092 735
1098 735
1099 735
1100 735
1101 735
1102 735
1103 735
1125 735
1126 735
1127 735
1168 735
973 736
1071 736
1093 736
1098 736
1099 736
1100 736
1101 736
1102 736
1103 736
1125 736
1126 736
1127 736
1169 736
974 737
1072 737
1094 737
1098 737
1099 737
1100 737
1101 737
1102 737
1103 737
1139 737
1140 737
1141 737
1170 737
975 738
1073 738
1095 738
1098 738
1099 738
1100 738
1101 738
1102 738
1103 738
1139 738
1140 738
1141 738
1171 738
976 739
1074 739
1096 739
1098 739
1099 739
1100 739
1101 739
1102 739
1103 739
1139 739
1140 739
1141 739
1172 739
977 740
1075 740
1097 740
1098 740
1099 740
1100 740
1101 740
1102 740
1103 740
1139 740
1140 740
1141 740
1173 740
1076 741
1098 741
1099 741
1100 741
1101 741
1102 741
1103 741
1077 742
1098 742
1099 742
1100 742
1101 742
1102 742
1103 742
1078 743
1098 743
1099 743
1100 743
1101 743
1102 743
1103 743
1079 744
1098 744
1099 744
1100 744
1101 744
1102 744
1103 744
1080 745
1098 745
1099 745
1100 745
1101 745
1102 745
1103 745
1081 746
1098 746
1099 746
1100 746
1101 746
1102 746
1103 746
1082 747
1098 747
1099 747
1100 747
1101 747
1102 747
1103 747
1083 748
1098 748
1099 748
1100 748
1101 748
1102 748
1103 748
1084 749
1098 749
1099 749
1100 749
1101 749
1102 749
1103 749
1085 750
1098 750
1099 750
1100 750
1101 750
1102 750
1103 750
1086 751
1098 751
1099 751
1100 751
1101 751
1102 751
1103 751
1087 752
1098 752
1099 752
1100 752
1101 752
1102 752
1103 752
1088 753
1098 753
1099 753
1100 753
1101 753
1102 753
1103 753
1089 754
1098 754
1099 754
1100 754
1101 754
1102 754
1103 754
1090 755
1098 755
1099 755
1100 755
1101 755
1102 755
1103 755
1091 756
1098 756
1099 756
1100 756
1101 756
1102 756
1103 756
1092 757
1098 757
1099 757
1100 757
1101 757
1102 757
1103 757
1093 758
1098 758
1099 758
1100 758
1101 758
1102 758
1103 758
1094 759
1098 759
1099 759
1100 759
1101 759
1102 759
1103 759
1095 760
1098 760
1099 760
1100 760
1101 760
1102 760
1103 760
1096 761
1098 761
1099 761
1100 761
1101 761
1102 761
1103 761
1097 762
1098 762
1099 762
1100 762
1101 762
1102 762
1103 762
1098 763
1099 763
1100 763
1101 763
1102 763
1103 763
1105 763
1106 763
1098 764
1099 764
1100 764
1101 764
1102 764
1103 764
1105 764
1107 764
1098 765
1099 765
1100 765
1101 765
1102 765
1103 765
1104 765
1105 765
1108 765
1098 766
1099 766
1100 766
1101 766
1102 766
1103 766
1113 766
1114 766
1098 767
1099 767
1100 767
1101 767
1102 767
1103 767
1113 767
1115 767
1098 768
1099 768
1100 768
1101 768
1102 768
1103 768
1112 768
1113 768
1116 768
1098 769
1099 769
1100 769
1101 769
1102 769
1103 769
1121 769
1122 769
1098 770
1099 770
1100 770
1101 770
1102 770
1103 770
1121 770
1123 770
1098 771
1099 771
1100 771
1101 771
1102 771
1103 771
1120 771
1121 771
1124 771
1098 772
1099 772
1100 772
1101 772
1102 772
1103 772
1129 772
1130 772
1098 773
1099 773
1100 773
1101 773
1102 773
1103 773
1129 773
1131 773
1098 774
1099 774
1100 774
1101 774
1102 774
1103 774
1128 774
1129 774
1132 774
1098 775
1099 775
1100 775
1101 775
1102 775
1103 775
1136 775
1098 776
1099 776
1100 776
1101 776
1102 776
1103 776
1137 776
1098 777
1099 777
1100 777
1101 777
1102 777
1103 777
1138 777
1054 778
1174 778
1055 779
1175 779
1056 780
1176 780
1057 781
1177 781
1218 781
1219 781
1220 781
1221 781
1222 781
1223 781
1229 781
1230 781
1231 781
1237 781
1238 781
1239 781
1245 781
1246 781
1247 781
1253 781
1254 781
1255 781
1259 781
1260 781
1261 781
1058 782
1178 782
1218 782
1219 782
1220 782
1221 782
1222 782
1223 782
1229 782
1230 782
1231 782
1237 782
1238 782
1239 782
1245 782
1246 782
1247 782
1253 782
1254 782
1255 782
1259 782
1260 782
1261 782
1059 783
1179 783
1218 783
1219 783
1220 783
1221 783
1222 783
1223 783
1229 783
1230 783
1231 783
1237 783
1238 783
1239 783
1245 783
1246 783
1247 783
1253 783
1254 783
1255 783
1259 783
1260 783
1261 783
1060 784
1180 784
1218 784
1219 784
1220 784
1221 784
1222 784
1223 784
1237 784
1238 784
1239 784
1262 784
1061 785
1181 785
1218 785
1219 785
1220 785
1221 785
1222 785
1223 785
1237 785
1238 785
1239 785
1263 785
1062 786
1182 786
1218 786
1219 786
1220 786
1221 786
1222 786
1223 786
1237 786
1238 786
1239 786
1264 786
1063 787
1183 787
1218 787
1219 787
1220 787
1221 787
1222 787
1223 787
1229 787
1230 787
1231 787
1265 787
1064 788
1184 788
1218 788
1219 788
1220 788
1221 788
1222 788
1223 788
1229 788
1230 788
1231 788
1266 788
1065 789
1185 789
1218 789
1219 789
1220 789
1221 789
1222 789
1223 789
1229 789
1230 789
1231 789
1267 789
1066 790
1186 790
1218 790
1219 790
1220 790
1221 790
1222 790
1223 790
1253 790
1254 790
1255 790
1268 790
1067 791
1187 791
1218 791
1219 791
1220 791
1221 791
1222 791
1223 791
1253 791
1254 791
1255 791
1269 791
1068 792
1188 792
1218 792
1219 792
1220 792
1221 792
1222 792
1223 792
1253 792
1254 792
1255 792
1270 792
1069 793
1189 793
1218 793
1219 793
1220 793
1221 793
1222 793
1223 793
1245 793
1246 793
1247 793
1271 793
1070 794
1190 794
1218 794
1219 794
1220 794
1221 794
1222 794
1223 794
1245 794
1246 794
1247 794
1272 794
1071 795
1191 795
1218 795
1219 795
1220 795
1221 795
1222 795
1223 795
1245 795
1246 795
1247 795
1273 795
1072 796
1192 796
1218 796
1219 796
1220 796
1221 796
1222 796
1223 796
1259 796
1260 796
1261 796
1274 796
1073 797
1193 797
1218 797
1219 797
1220 797
1221 797
1222 797
1223 797
1259 797
1260 797
1261 797
1275 797
1074 798
1194 798
1218 798
1219 798
1220 798
1221 798
1222 798
1223 798
1259 798
1260 798
1261 798
1276 798
1075 799
1195 799
1218 799
1219 799
1220 799
1221 799
1222 799
1223 799
1259 799
1260 799
1261 799
1277 799
1076 800
1174 800
1196 800
1218 800
1219 800
1220 800
1221 800
1222 800
1223 800
1229 800
1230 800
1231 800
1237 800
1238 800
1239 800
1245 800
1246 800
1247 800
1253 800
1254 800
1255 800
1259 800
1260 800
1261 800
1077 801
1175 801
1197 801
1218 801
1219 801
1220 801
1221 801
1222 801
1223 801
1229 801
1230 801
1231 801
1237 801
1238 801
1239 801
1245 801
1246 801
1247 801
1253 801
1254 801
1255 801
1259 801
1260 801
1261 801
1078 802
1176 802
1198 802
1218 802
1219 802
1220 802
1221 802
1222 802
1223 802
1229 802
1230 802
1231 802
1237 802
1238 802
1239 802
1245 802
1246 802
1247 802
1253 802
1254 802
1255 802
1259 802
1260 802
1261 802
1079 803
1177 803
1199 803
1218 803
1219 803
1220 803
1221 803
1222 803
1223 803
1229 803
1230 803
1231 803
1237 803
1238 803
1239 803
1245 803
1246 803
1247 803
1253 803
1254 803
1255 803
1259 803
1260 803
1261 803
1080 804
1178 804
1200 804
1218 804
1219 804
1220 804
1221 804
1222 804
1223 804
1229 804
1230 804
1231 804
1237 804
1238 804
1239 804
1245 804
1246 804
1247 804
1253 804
1254 804
1255 804
1259 804
1260 804
1261 804
1081 805
1179 805
1201 805
1218 805
1219 805
1220 805
1221 805
1222 805
1223 805
1229 805
1230 805
1231 805
1237 805
1238 805
1239 805
1245 805
1246 805
1247 805
1253 805
1254 805
1255 805
1259 805
1260 805
1261 805
1082 806
1180 806
1202 806
1218 806
1219 806
1220 806
1221 806
1222 806
1223 806
1237 806
1238 806
1239 806
1278 806
1083 807
1181 807
1203 807
1218 807
1219 807
1220 807
1221 807
1222 807
1223 807
1237 807
1238 807
1239 807
1279 807
1084 808
1182 808
1204 808
1218 808
1219 808
1220 808
1221 808
1222 808
1223 808
1237 808
1238 808
1239 808
1280 808
1085 809
1183 809
1205 809
1218 809
1219 809
1220 809
1221 809
1222 809
1223 809
1229 809
1230 809
1231 809
1281 809
1086 810
1184 810
1206 810
1218 810
1219 810
1220 810
1221 810
1222 810
1223 810
1229 810
1230 810
1231 810
1282 810
1087 811
1185 811
1207 811
1218 811
1219 811
1220 811
1221 811
1222 811
1223 811
1229 811
1230 811
1231 811
1283 811
1088 812
1186 812
1208 812
1218 812
1219 812
1220 812
1221 812
1222 812
1223 812
1253 812
1254 812
1255 812
1284 812
1089 813
1187 813
1209 813
1218 813
1219 813
1220 813
1221 813
1222 813
1223 813
1253 813
1254 813
1255 813
1285 813
1090 814
1188 814
1210 814
1218 814
1219 814
1220 814
1221 814
1222 814
1223 814
1253 814
1254 814
1255 814
1286 814
1091 815
1189 815
1211 815
1218 815
1219 815
1220 815
1221 815
1222 815
1223 815
1245 815
1246 815
1247 815
1287 815
1092 816
1190 816
1212 816
1218 816
1219 816
1220 816
1221 816
1222 816
1223 816
1245 816
1246 816
1247 816
1288 816
1093 817
1191 817
1213 817
1218 817
1219 817
1220 817
1221 817
1222 817
1223 817
1245 817
1246 817
1247 817
1289 817
1094 818
1192 818
1214 818
1218 818
1219 818
1220 818
1221 818
1222 818
1223 818
1259 818
1260 818
1261 818
1290 818
1095 819
1193 819
1215 819
1218 819
1219 819
1220 819
1221 819
1222 819
1223 819
1259 819
1260 819
1261 819
1291 819
1096 820
1194 820
1216 820
1218 820
1219 820
1220 820
1221 820
1222 820
1223 820
1259 820
1260 820
1261 820
1292 820
1097 821
1195 821
1217 821
1218 821
1219 821
1220 821
1221 821
1222 821
1223 821
1259 821
1260 821
1261 821
1293 821
1196 822
1218 822
1219 822
1220 822
1221 822
1222 822
1223 822
1197 823
1218 823
1219 823
1220 823
1221 823
1222 823
1223 823
1198 824
1218 824
1219 824
1220 824
1221 824
1222 824
1223 824
1199 825
1218 825
1219 825
1220 825
1221 825
1222 825
1223 825
1200 826
1218 826
1219 826
1220 826
1221 826
1222 826
1223 826
1201 827
1218 827
1219 827
1220 827
1221 827
1222 827
1223 827
1202 828
1218 828
1219 828
1220 828
1221 828
1222 828
1223 828
1203 829
1218 829
1219 829
1220 829
1221 829
1222 829
1223 829
1204 830
1218 830
1219 830
1220 830
1221 830
1222 830
1223 830
1205 831
1218 831
1219 831
1220 831
1221 831
1222 831
1223 831
1206 832
1218 832
1219 832
1220 832
1221 832
1222 832
1223 832
1207 833
1218 833
1219 833
1220 833
1221 833
1222 833
1223 833
1208 834
1218 834
1219 834
1220 834
1221 834
1222 834
1223 834
1209 835
1218 835
1219 835
1220 835
1221 835
1222 835
1223 835
1210 836
1218 836
1219 836
1220 836
1221 836
1222 836
1223 836
1211 837
1218 837
1219 837
1220 837
1221 837
1222 837
1223 837
1212 838
1218 838
1219 838
1220 838
1221 838
1222 838
1223 838
1213 839
1218 839
1219 839
1220 839
1221 839
1222 839
1223 839
1214 840
1218 840
1219 840
1220 840
1221 840
1222 840
1223 840
1215 841
1218 841
1219 841
1220 841
1221 841
1222 841
1223 841
1216 842
1218 842
1219 842
1220 842
1221 842
1222 842
1223 842
1217 843
1218 843
1219 843
1220 843
1221 843
1222 843
1223 843
1218 844
1219 844
1220 844
1221 844
1222 844
1223 844
1225 844
1226 844
1218 845
1219 845
1220 845
1221 845
1222 845
1223 845
1225 845
1227 845
1218 846
1219 846
1220 846
1221 846
1222 846
1223 846
1224 846
1225 846
1228 846
1218 847
1219 847
1220 847
1221 847
1222 847
1223 847
1233 847
1234 847
1218 848
1219 848
1220 848
1221 848
1222 848
1223 848
1233 848
1235 848
1218 849
1219 849
1220 849
1221 849
1222 849
1223 849
1232 849
1233 849
1236 849
1218 850
1219 850
1220 850
1221 850
1222 850
1223 850
1241 850
1242 850
1218 851
1219 851
1220 851
1221 851
1222 851
1223 851
1241 851
1243 851
1218 852
1219 852
1220 852
1221 852
1222 852
1223 852
1240 852
1241 852
1244 852
1218 853
1219 853
1220 853
1221 853
1222 853
1223 853
1249 853
1250 853
1218 854
1219 854
1220 854
1221 854
1222 854
1223 854
1249 854
1251 854
1218 855
1219 855
1220 855
1221 855
1222 855
1223 855
1248 855
1249 855
1252 855
1218 856
1219 856
1220 856
1221 856
1222 856
1223 856
1256 856
1218 857
1219 857
1220 857
1221 857
1222 857
1223 857
1257 857
1218 858
1219 858
1220 858
1221 858
1222 858
1223 858
1258 858
1174 859
1294 859
1175 860
1295 860
1176 861
1296 861
1177 862
1297 862
1338 862
1339 862
1340 862
1341 862
1342 862
1343 862
1349 862
1350 862
1351 862
1357 862
1358 862
1359 862
1365 862
1366 862
1367 862
1373 862
1374 862
1375 862
1379 862
1380 862
1381 862
1178 863
1298 863
1338 863
1339 863
1340 863
1341 863
1342 863
1343 863
1349 863
1350 863
1351 863
1357 863
1358 863
1359 863
1365 863
1366 863
1367 863
1373 863
1374 863
1375 863
1379 863
1380 863
1381 863
1179 864
1299 864
1338 864
1339 864
1340 864
1341 864
1342 864
1343 864
1349 864
1350 864
1351 864
1357 864
1358 864
1359 864
1365 864
1366 864
1367 864
1373 864
1374 864
1375 864
1379 864
1380 864
1381 864
1180 865
1300 865
1338 865
1339 865
1340 865
1341 865
1342 865
1343 865
1357 865
1358 865
1359 865
1382 865
1181 866
1301 866
1338 866
1339 866
1340 866
1341 866
1342 866
1343 866
1357 866
1358 866
1359 866
1383 866
1182 867
1302 867
1338 867
1339 867
1340 867
1341 867
1342 867
1343 867
1357 867
1358 867
1359 867
1384 867
1183 868
1303 868
1338 868
1339 868
1340 868
1341 868
1342 868
1343 868
1349 868
1350 868
1351 868
1385 868
1184 869
1304 869
1338 869
1339 869
1340 869
1341 869
1342 869
1343 869
1349 869
1350 869
1351 869
1386 869
1185 870
1305 870
1338 870
1339 870
1340 870
1341 870
1342 870
1343 870
1349 870
1350 870
1351 870
1387 870
1186 871
1306 871
1338 871
1339 871
1340 871
1341 871
1342 871
1343 871
1373 871
1374 871
1375 871
1388 871
1187 872
1307 872
1338 872
1339 872
1340 872
1341 872
1342 872
1343 872
1373 872
1374 872
1375 872
1389 872
1188 873
1308 873
1338 873
1339 873
1340 873
1341 873
1342 873
1343 873
1373 873
1374 873
1375 873
1390 873
1189 874
1309 874
1338 874
1339 874
1340 874
1341 874
1342 874
1343 874
1365 874
1366 874
1367 874
1391 874
1190 875
1310 875
1338 875
1339 875
1340 875
1341 875
1342 875
1343 875
1365 875
1366 875
1367 875
1392 875
1191 876
1311 876
1338 876
1339 876
1340 876
1341 876
1342 876
1343 876
1365 876
1366 876
1367 876
1393 876
1192 877
1312 877
1338 877
1339 877
1340 877
1341 877
1342 877
1343 877
1379 877
1380 877
1381 877
1394 877
1193 878
1313 878
1338 878
1339 878
1340 878
1341 878
1342 878
1343 878
1379 878
1380 878
1381 878
1395 878
1194 879
1314 879
1338 879
1339 879
1340 879
1341 879
1342 879
1343 879
1379 879
1380 879
1381 879
1396 879
1195 880
1315 880
1338 880
1339 880
1340 880
1341 880
1342 880
1343 880
1379 880
1380 880
1381 880
1397 880
1196 881
1294 881
1316 881
1338 881
1339 881
1340 881
1341 881
1342 881
1343 881
1349 881
1350 881
1351 881
1357 881
1358 881
1359 881
1365 881
1366 881
1367 881
1373 881
1374 881
1375 881
1379 881
1380 881
1381 881
1197 882
1295 882
1317 882
1338 882
1339 882
1340 882
1341 882
1342 882
1343 882
1349 882
1350 882
1351 882
1357 882
1358 882
1359 882
1365 882
1366 882
1367 882
1373 882
1374 882
1375 882
1379 882
1380 882
1381 882
1198 883
1296 883
1318 883
1338 883
1339 883
1340 883
1341 883
1342 883
1343 883
1349 883
1350 883
1351 883
1357 883
1358 883
1359 883
1365 883
1366 883
1367 883
1373 883
1374 883
1375 883
1379 883
1380 883
1381 883
1199 884
1297 884
1319 884
1338 884
1339 884
1340 884
1341 884
1342 884
1343 884
1349 884
1350 884
1351 884
1357 884
1358 884
1359 884
1365 884
1366 884
1367 884
1373 884
1374 884
1375 884
1379 884
1380 884
1381 884
1200 885
1298 885
1320 885
1338 885
1339 885
1340 885
1341 885
1342 885
1343 885
1349 885
1350 885
1351 885
1357 885
1358 885
1359 885
1365 885
1366 885
1367 885
1373 885
1374 885
1375 885
1379 885
1380 885
1381 885
1201 886
1299 886
1321 886
1338 886
1339 886
1340 886
1341 886
1342 886
1343 886
1349 886
1350 886
1351 886
1357 886
1358 886
1359 886
1365 886
1366 886
1367 886
1373 886
1374 886
1375 886
1379 886
1380 886
1381 886
1202 887
1300 887
1322 887
1338 887
1339 887
1340 887
1341 887
1342 887
1343 887
1357 887
1358 887
1359 887
1398 887
1203 888
1301 888
1323 888
1338 888
1339 888
1340 888
1341 888
1342 888
1343 888
1357 888
1358 888
1359 888
1399 888
1204 889
1302 889
1324 889
1338 889
1339 889
1340 889
1341 889
1342 889
1343 889
1357 889
1358 889
1359 889
1400 889
1205 890
1303 890
1325 890
1338 890
1339 890
1340 890
1341 890
1342 890
1343 890
1349 890
1350 890
1351 890
1401 890
1206 891
1304 891
1326 891
1338 891
1339 891
1340 891
1341 891
1342 891
1343 891
1349 891
1350 891
1351 891
1402 891
1207 892
1305 892
1327 892
1338 892
1339 892
1340 892
1341 892
1342 892
1343 892
1349 892
1350 892
1351 892
1403 892
1208 893
1306 893
1328 893
1338 893
1339 893
1340 893
1341 893
1342 893
1343 893
1373 893
1374 893
1375 893
1404 893
1209 894
1307 894
1329 894
1338 894
1339 894
1340 894
1341 894
1342 894
1343 894
1373 894
1374 894
1375 894
1405 894
1210 895
1308 895
1330 895
1338 895
1339 895
1340 895
1341 895
1342 895
1343 895
1373 895
1374 895
1375 895
1406 895
1211 896
1309 896
1331 896
1338 896
1339 896
1340 896
1341 896
1342 896
1343 896
1365 896
1366 896
1367 896
1407 896
1212 897
1310 897
1332 897
1338 897
1339 897
1340 897
1341 897
1342 897
1343 897
1365 897
1366 897
1367 897
1408 897
1213 898
1311 898
1333 898
1338 898
1339 898
1340 898
1341 898
1342 898
1343 898
1365 898
1366 898
1367 898
1409 898
1214 899
1312 899
1334 899
1338 899
1339 899
1340 899
1341 899
1342 899
1343 899
1379 899
1380 899
1381 899
1410 899
1215 900
1313 900
1335 900
1338 900
1339 900
1340 900
1341 900
1342 900
1343 900
1379 900
1380 900
1381 900
1411 900
1216 901
1314 901
1336 901
1338 901
1339 901
1340 901
1341 901
1342 901
1343 901
1379 901
1380 901
1381 901
1412 901
1217 902
1315 902
1337 902
1338 902
1339 902
1340 902
1341 902
1342 902
1343 902
1379 902
1380 902
1381 902
1413 902
1316 903
1338 903
1339 903
1340 903
1341 903
1342 903
1343 903
1317 904
1338 904
1339 904
1340 904
1341 904
1342 904
1343 904
1318 905
1338 905
1339 905
1340 905
1341 905
1342 905
1343 905
1319 906
1338 906
1339 906
1340 906
1341 906
1342 906
1343 906
1320 907
1338 907
1339 907
1340 907
1341 907
1342 907
1343 907
1321 908
1338 908
1339 908
1340 908
1341 908
1342 908
1343 908
1322 909
1338 909
1339 909
1340 909
1341 909
1342 909
1343 909
1323 910
1338 910
1339 910
1340 910
1341 910
1342 910
1343 910
1324 911
1338 911
1339 911
1340 911
1341 911
1342 911
1343 911
1325 912
1338 912
1339 912
1340 912
1341 912
1342 912
1343 912
1326 913
1338 913
1339 913
1340 913
1341 913
1342 913
1343 913
1327 914
1338 914
1339 914
1340 914
1341 914
1342 914
1343 914
1328 915
1338 915
1339 915
1340 915
1341 915
1342 915
1343 915
1329 916
1338 916
1339 916
1340 916
1341 916
1342 916
1343 916
1330 917
1338 917
1339 917
1340 917
1341 917
1342 917
1343 917
1331 918
1338 918
1339 918
1340 918
1341 918
1342 918
1343 918
1332 919
1338 919
1339 919
1340 919
1341 919
1342 919
1343 919
1333 920
1338 920
1339 920
1340 920
1341 920
1342 920
1343 920
1334 921
1338 921
1339 921
1340 921
1341 921
1342 921
1343 921
1335 922
1338 922
1339 922
1340 922
1341 922
1342 922
1343 922
1336 923
1338 923
1339 923
1340 923
1341 923
1342 923
1343 923
1337 924
1338 924
1339 924
1340 924
1341 924
1342 924
1343 924
1338 925
1339 925
1340 925
1341 925
1342 925
1343 925
1345 925
1346 925
1338 926
1339 926
1340 926
1341 926
1342 926
1343 926
1345 926
1347 926
1338 927
1339 927
1340 927
1341 927
1342 927
1343 927
1344 927
1345 927
1348 927
1338 928
1339 928
1340 928
1341 928
1342 928
1343 928
1353 928
1354 928
1338 929
1339 929
1340 929
1341 929
1342 929
1343 929
1353 929
1355 929
1338 930
1339 930
1340 930
1341 930
1342 930
1343 930
1352 930
1353 930
1356 930
1338 931
1339 931
1340 931
1341 931
1342 931
1343 931
1361 931
1362 931
1338 932
1339 932
1340 932
1341 932
1342 932
1343 932
1361 932
1363 932
1338 933
1339 933
1340 933
1341 933
1342 933
1343 933
1360 933
1361 933
1364 933
1338 934
1339 934
1340 934
1341 934
1342 934
1343 934
1369 934
1370 934
1338 935
1339 935
1340 935
1341 935
1342 935
1343 935
1369 935
1371 935
1338 936
1339 936
1340 936
1341 936
1342 936
1343 936
1368 936
1369 936
1372 936
1338 937
1339 937
1340 937
1341 937
1342 937
1343 937
1376 937
1338 938
1339 938
1340 938
1341 938
1342 938
1343 938
1377 938
1338 939
1339 939
1340 939
1341 939
1342 939
1343 939
1378 939
1294 940
1414 940
1295 941
1415 941
1296 942
1416 942
1297 943
1417 943
1458 943
1459 943
1460 943
1461 943
1462 943
1463 943
1469 943
1470 943
1471 943
1477 943
1478 943
1479 943
1485 943
1486 943
1487 943
1493 943
1494 943
1495 943
1499 943
1500 943
1501 943
1298 944
1418 944
1458 944
1459 944
1460 944
1461 944
1462 944
1463 944
1469 944
1470 944
1471 944
1477 944
1478 944
1479 944
1485 944
1486 944
1487 944
1493 944
1494 944
1495 944
1499 944
1500 944
1501 944
1299 945
1419 945
1458 945
1459 945
1460 945
1461 945
1462 945
1463 945
1469 945
1470 945
1471 945
1477 945
1478 945
1479 945
1485 945
1486 945
1487 945
1493 945
1494 945
1495 945
1499 945
1500 945
1501 945
1300 946
1420 946
1458 946
1459 946
1460 946
1461 946
1462 946
1463 946
1477 946
1478 946
1479 946
1502 946
1301 947
1421 947
1458 947
1459 947
1460 947
1461 947
1462 947
1463 947
1477 947
1478 947
1479 947
1503 947
1302 948
1422 948
1458 948
1459 948
1460 948
1461 948
1462 948
1463 948
1477 948
1478 948
1479 948
1504 948
1303 949
1423 949
1458 949
1459 949
1460 949
1461 949
1462 949
1463 949
1469 949
1470 949
1471 949
1505 949
1304 950
1424 950
1458 950
1459 950
1460 950
1461 950
1462 950
1463 950
1469 950
1470 950
1471 950
1506 950
1305 951
1425 951
1458 951
1459 951
1460 951
1461 951
1462 951
1463 951
1469 951
1470 951
1471 951
1507 951
1306 952
1426 952
1458 952
1459 952
1460 952
1461 952
1462 952
1463 952
1493 952
1494 952
1495 952
1508 952
1307 953
1427 953
1458 953
1459 953
1460 953
1461 953
1462 953
1463 953
1493 953
1494 953
1495 953
1509 953
1308 954
1428 954
1458 954
1459 954
1460 954
1461 954
1462 954
1463 954
1493 954
1494 954
1495 954
1510 954
1309 955
1429 955
1458 955
1459 955
1460 955
1461 955
1462 955
1463 955
1485 955
1486 955
1487 955
1511 955
1310 956
1430 956
1458 956
1459 956
1460 956
1461 956
1462 956
1463 956
1485 956
1486 956
1487 956
1512 956
1311 957
1431 957
1458 957
1459 957
1460 957
1461 957
1462 957
1463 957
1485 957
1486 957
1487 957
1513 957
1312 958
1432 958
1458 958
1459 958
1460 958
1461 958
1462 958
1463 958
1499 958
1500 958
1501 958
1514 958
1313 959
1433 959
1458 959
1459 959
1460 959
1461 959
1462 959
1463 959
1499 959
1500 959
1501 959
1515 959
1314 960
1434 960
1458 960
1459 960
1460 960
1461 960
1462 960
1463 960
1499 960
1500 960
1501 960
1516 960
1315 961
1435 961
1458 961
1459 961
1460 961
1461 961
1462 961
1463 961
1499 961
1500 961
1501 961
1517 961
1316 962
1414 962
1436 962
1458 962
1459 962
1460 962
1461 962
1462 962
1463 962
1469 962
1470 962
1471 962
1477 962
1478 962
1479 962
1485 962
1486 962
1487 962
1493 962
1494 962
1495 962
1499 962
1500 962
1501 962
1317 963
1415 963
1437 963
1458 963
1459 963
1460 963
1461 963
1462 963
1463 963
1469 963
1470 963
1471 963
1477 963
1478 963
1479 963
1485 963
1486 963
1487 963
1493 963
1494 963
1495 963
1499 963
1500 963
1501 963
1318 964
1416 964
1438 964
1458 964
1459 964
1460 964
1461 964
1462 964
1463 964
1469 964
1470 964
1471 964
1477 964
1478 964
1479 964
1485 964
1486 964
1487 964
1493 964
1494 964
1495 964
1499 964
1500 964
1501 964
1319 965
1417 965
1439 965
1458 965
1459 965
1460 965
1461 965
1462 965
1463 965
1469 965
1470 965
1471 965
1477 965
1478 965
1479 965
1485 965
1486 965
1487 965
1493 965
1494 965
1495 965
1499 965
1500 965
1501 965
1320 966
1418 966
1440 966
1458 966
1459 966
1460 966
1461 966
1462 966
1463 966
1469 966
1470 966
1471 966
1477 966
1478 966
1479 966
1485 966
1486 966
1487 966
1493 966
1494 966
1495 966
1499 966
1500 966
1501 966
1321 967
1419 967
1441 967
1458 967
1459 967
1460 967
1461 967
1462 967
1463 967
1469 967
1470 967
1471 967
1477 967
1478 967
1479 967
1485 967
1486 967
1487 967
1493 967
1494 967
1495 967
1499 967
1500 967
1501 967
1322 968
1420 968
1442 968
1458 968
1459 968
1460 968
1461 968
1462 968
1463 968
1477 968
1478 968
1479 968
1518 968
1323 969
1421 969
1443 969
1458 969
1459 969
1460 969
1461 969
1462 969
1463 969
1477 969
1478 969
1479 969
1519 969
1324 970
1422 970
1444 970
1458 970
1459 970
1460 970
1461 970
1462 970
1463 970
1477 970
1478 970
1479 970
1520 970
1325 971
1423 971
1445 971
1458 971
1459 971
1460 971
1461 971
1462 971
1463 971
1469 971
1470 971
1471 971
1521 971
1326 972
1424 972
1446 972
1458 972
1459 972
1460 972
1461 972
1462 972
1463 972
1469 972
1470 972
1471 972
1522 972
1327 973
1425 973
1447 973
1458 973
1459 973
1460 973
1461 973
1462 973
1463 973
1469 973
1470 973
1471 973
1523 973
1328 974
1426 974
1448 974
1458 974
1459 974
1460 974
1461 974
1462 974
1463 974
1493 974
1494 974
1495 974
1524 974
1329 975
1427 975
1449 975
1458 975
1459 975
1460 975
1461 975
1462 975
1463 975
1493 975
1494 975
1495 975
1525 975
1330 976
1428 976
1450 976
1458 976
1459 976
1460 976
1461 976
1462 976
1463 976
1493 976
1494 976
1495 976
1526 976
1331 977
1429 977
1451 977
1458 977
1459 977
1460 977
1461 977
1462 977
1463 977
1485 977
1486 977
1487 977
1527 977
1332 978
1430 978
1452 978
1458 978
1459 978
1460 978
1461 978
1462 978
1463 978
1485 978
1486 978
1487 978
1528 978
1333 979
1431 979
1453 979
1458 979
1459 979
1460 979
1461 979
1462 979
1463 979
1485 979
1486 979
1487 979
1529 979
1334 980
1432 980
1454 980
1458 980
1459 980
1460 980
1461 980
1462 980
1463 980
1499 980
1500 980
1501 980
1530 980
1335 981
1433 981
1455 981
1458 981
1459 981
1460 981
1461 981
1462 981
1463 981
1499 981
1500 981
1501 981
1531 981
1336 982
1434 982
1456 982
1458 982
1459 982
1460 982
1461 982
1462 982
1463 982
1499 982
1500 982
1501 982
1532 982
1337 983
1435 983
1457 983
1458 983
1459 983
1460 983
1461 983
1462 983
1463 983
1499 983
1500 983
1501 983
1533 983
1436 984
1458 984
1459 984
1460 984
1461 984
1462 984
1463 984
1437 985
1458 985
1459 985
1460 985
1461 985
1462 985
1463 985
1438 986
1458 986
1459 986
1460 986
1461 986
1462 986
1463 986
1439 987
1458 987
1459 987
1460 987
1461 987
1462 987
1463 987
1440 988
1458 988
1459 988
1460 988
1461 988
1462 988
1463 988
1441 989
1458 989
1459 989
1460 989
1461 989
1462 989
1463 989
1442 990
1458 990
1459 990
1460 990
1461 990
1462 990
1463 990
1443 991
1458 991
1459 991
1460 991
1461 991
1462 991
1463 991
1444 992
1458 992
1459 992
1460 992
1461 992
1462 992
1463 992
1445 993
1458 993
1459 993
1460 993
1461 993
1462 993
1463 993
1446 994
1458 994
1459 994
1460 994
1461 994
1462 994
1463 994
1447 995
1458 995
1459 995
1460 995
1461 995
1462 995
1463 995
1448 996
1458 996
1459 996
1460 996
1461 996
1462 996
1463 996
1449 997
1458 997
1459 997
1460 997
1461 997
1462 997
1463 997
1450 998
1458 998
1459 998
1460 998
1461 998
1462 998
1463 998
1451 999
1458 999
1459 999
1460 999
1461 999
1462 999
1463 999
1452 1000
1458 1000
1459 1000
1460 1000
1461 1000
1462 1000
1463 1000
1453 1001
1458 1001
1459 1001
1460 1001
1461 1001
1462 1001
1463 1001
1454 1002
1458 1002
1459 1002
1460 1002
1461 1002
1462 1002
1463 1002
1455 1003
1458 1003
1459 1003
1460 1003
1461 1003
1462 1003
1463 1003
1456 1004
1458 1004
1459 1004
1460 1004
1461 1004
1462 1004
1463 1004
1457 1005
1458 1005
1459 1005
1460 1005
1461 1005
1462 1005
1463 1005
1458 1006
1459 1006
1460 1006
1461 1006
1462 1006
1463 1006
1465 1006
1466 1006
1458 1007
1459 1007
1460 1007
1461 1007
1462 1007
1463 1007
1465 1007
1467 1007
1458 1008
1459 1008
1460 1008
1461 1008
1462 1008
1463 1008
1464 1008
1465 1008
1468 1008
1458 1009
1459 1009
1460 1009
1461 1009
1462 1009
1463 1009
1473 1009
1474 1009
1458 1010
1459 1010
1460 1010
1461 1010
1462 1010
1463 1010
1473 1010
1475 1010
1458 1011
1459 1011
1460 1011
1461 1011
1462 1011
1463 1011
1472 1011
1473 1011
1476 1011
1458 1012
1459 1012
1460 1012
1461 1012
1462 1012
1463 1012
1481 1012
1482 1012
1458 1013
1459 1013
1460 1013
1461 1013
1462 1013
1463 1013
1481 1013
1483 1013
1458 1014
1459 1014
1460 1014
1461 1014
1462 1014
1463 1014
1480 1014
1481 1014
1484 1014
1458 1015
1459 1015
1460 1015
1461 1015
1462 1015
1463 1015
1489 1015
1490 1015
1458 1016
1459 1016
1460 1016
1461 1016
1462 1016
1463 1016
1489 1016
1491 1016
1458 1017
1459 1017
1460 1017
1461 1017
1462 1017
1463 1017
1488 1017
1489 1017
1492 1017
1458 1018
1459 1018
1460 1018
1461 1018
1462 1018
1463 1018
1496 1018
1458 1019
1459 1019
1460 1019
1461 1019
1462 1019
1463 1019
1497 1019
1458 1020
1459 1020
1460 1020
1461 1020
1462 1020
1463 1020
1498 1020
1414 1021
1534 1021
1415 1022
1535 1022
1416 1023
1536 1023
1417 1024
1537 1024
1578 1024
1579 1024
1580 1024
1581 1024
1582 1024
1583 1024
1589 1024
1590 1024
1591 1024
1597 1024
1598 1024
1599 1024
1605 1024
1606 1024
1607 1024
1613 1024
1614 1024
1615 1024
1619 1024
1620 1024
1621 1024
1418 1025
1538 1025
1578 1025
1579 1025
1580 1025
1581 1025
1582 1025
1583 1025
1589 1025
1590 1025
1591 1025
1597 1025
1598 1025
1599 1025
1605 1025
1606 1025
1607 1025
1613 1025
1614 1025
1615 1025
1619 1025
1620 1025
1621 1025
1419 1026
1539 1026
1578 1026
1579 1026
1580 1026
1581 1026
1582 1026
1583 1026
1589 1026
1590 1026
1591 1026
1597 1026
1598 1026
1599 1026
1605 1026
1606 1026
1607 1026
1613 1026
1614 1026
1615 1026
1619 1026
1620 1026
1621 1026
1420 1027
1540 1027
1578 1027
1579 1027
1580 1027
1581 1027
1582 1027
1583 1027
1597 1027
1598 1027
1599 1027
1622 1027
1421 1028
1541 1028
1578 1028
1579 1028
1580 1028
1581 1028
1582 1028
1583 1028
1597 1028
1598 1028
1599 1028
1623 1028
1422 1029
1542 1029
1578 1029
1579 1029
1580 1029
1581 1029
1582 1029
1583 1029
1597 1029
1598 1029
1599 1029
1624 1029
1423 1030
1543 1030
1578 1030
1579 1030
1580 1030
1581 1030
1582 1030
1583 1030
1589 1030
1590 1030
1591 1030
1625 1030
1424 1031
1544 1031
1578 1031
1579 1031
1580 1031
1581 1031
1582 1031
1583 1031
1589 1031
1590 1031
1591 1031
1626 1031
1425 1032
1545 1032
1578 1032
1579 1032
1580 1032
1581 1032
1582 1032
1583 1032
1589 1032
1590 1032
1591 1032
1627 1032
1426 1033
1546 1033
1578 1033
1579 1033
1580 1033
1581 1033
1582 1033
1583 1033
1613 1033
1614 1033
1615 1033
1628 1033
1427 1034
1547 1034
1578 1034
1579 1034
1580 1034
1581 1034
1582 1034
1583 1034
1613 1034
1614 1034
1615 1034
1629 1034
1428 1035
1548 1035
1578 1035
1579 1035
1580 1035
1581 1035
1582 1035
1583 1035
1613 1035
1614 1035
1615 1035
1630 1035
1429 1036
1549 1036
1578 1036
1579 1036
1580 1036
1581 1036
1582 1036
1583 1036
1605 1036
1606 1036
1607 1036
1631 1036
1430 1037
1550 1037
1578 1037
1579 1037
1580 1037
1581 1037
1582 1037
1583 1037
1605 1037
1606 1037
1607 1037
1632 1037
1431 1038
1551 1038
1578 1038
1579 1038
1580 1038
1581 1038
1582 1038
1583 1038
1605 1038
1606 1038
1607 1038
1633 1038
1432 1039
1552 1039
1578 1039
1579 1039
1580 1039
1581 1039
1582 1039
1583 1039
1619 1039
1620 1039
1621 1039
1634 1039
1433 1040
1553 1040
1578 1040
1579 1040
1580 1040
1581 1040
1582 1040
1583 1040
1619 1040
1620 1040
1621 1040
1635 1040
1434 1041
1554 1041
1578 1041
1579 1041
1580 1041
1581 1041
1582 1041
1583 1041
1619 1041
1620 1041
1621 1041
1636 1041
1435 1042
1555 1042
1578 1042
1579 1042
1580 1042
1581 1042
1582 1042
1583 1042
1619 1042
1620 1042
1621 1042
1637 1042
1436 1043
1534 1043
1556 1043
1578 1043
1579 1043
1580 1043
1581 1043
1582 1043
1583 1043
1589 1043
1590 1043
1591 1043
1597 1043
1598 1043
1599 1043
1605 1043
1606 1043
1607 1043
1613 1043
1614 1043
1615 1043
1619 1043
1620 1043
1621 1043
1437 1044
1535 1044
1557 1044
1578 1044
1579 1044
1580 1044
1581 1044
1582 1044
1583 1044
1589 1044
1590 1044
1591 1044
1597 1044
1598 1044
1599 1044
1605 1044
1606 1044
1607 1044
1613 1044
1614 1044
1615 1044
1619 1044
1620 1044
1621 1044
1438 1045
1536 1045
1558 1045
1578 1045
1579 1045
1580 1045
1581 1045
1582 1045
1583 1045
1589 1045
1590 1045
1591 1045
1597 1045
1598 1045
1599 1045
1605 1045
1606 1045
1607 1045
1613 1045
1614 1045
1615 1045
1619 1045
1620 1045
1621 1045
1439 1046
1537 1046
1559 1046
1578 1046
1579 1046
1580 1046
1581 1046
1582 1046
1583 1046
1589 1046
1590 1046
1591 1046
1597 1046
1598 1046
1599 1046
1605 1046
1606 1046
1607 1046
1613 1046
1614 1046
1615 1046
1619 1046
1620 1046
1621 1046
1440 1047
1538 1047
1560 1047
1578 1047
1579 1047
1580 1047
1581 1047
1582 1047
1583 1047
1589 1047
1590 1047
1591 1047
1597 1047
1598 1047
1599 1047
1605 1047
1606 1047
1607 1047
1613 1047
1614 1047
1615 1047
1619 1047
1620 1047
1621 1047
1441 1048
1539 1048
1561 1048
1578 1048
1579 1048
1580 1048
1581 1048
1582 1048
1583 1048
1589 1048
1590 1048
1591 1048
1597 1048
1598 1048
1599 1048
1605 1048
1606 1048
1607 1048
1613 1048
1614 1048
1615 1048
1619 1048
1620 1048
1621 1048
1442 1049
1540 1049
1562 1049
1578 1049
1579 1049
1580 1049
1581 1049
1582 1049
1583 1049
1597 1049
1598 1049
1599 1049
1638 1049
1443 1050
1541 1050
1563 1050
1578 1050
1579 1050
1580 1050
1581 1050
1582 1050
1583 1050
1597 1050
1598 1050
1599 1050
1639 1050
1444 1051
1542 1051
1564 1051
1578 1051
1579 1051
1580 1051
1581 1051
1582 1051
1583 1051
1597 1051
1598 1051
1599 1051
1640 1051
1445 1052
1543 1052
1565 1052
1578 1052
1579 1052
1580 1052
1581 1052
1582 1052
1583 1052
1589 1052
1590 1052
1591 1052
1641 1052
1446 1053
1544 1053
1566 1053
1578 1053
1579 1053
1580 1053
1581 1053
1582 1053
1583 1053
1589 1053
1590 1053
1591 1053
1642 1053
1447 1054
1545 1054
1567 1054
1578 1054
1579 1054
1580 1054
1581 1054
1582 1054
1583 1054
1589 1054
1590 1054
1591 1054
1643 1054
1448 1055
1546 1055
1568 1055
1578 1055
1579 1055
1580 1055
1581 1055
1582 1055
1583 1055
1613 1055
1614 1055
1615 1055
1644 1055
1449 1056
1547 1056
1569 1056
1578 1056
1579 1056
1580 1056
1581 1056
1582 1056
1583 1056
1613 1056
1614 1056
1615 1056
1645 1056
1450 1057
1548 1057
1570 1057
1578 1057
1579 1057
1580 1057
1581 1057
1582 1057
1583 1057
1613 1057
1614 1057
1615 1057
1646 1057
1451 1058
1549 1058
1571 1058
1578 1058
1579 1058
1580 1058
1581 1058
1582 1058
1583 1058
1605 1058
1606 1058
1607 1058
1647 1058
1452 1059
1550 1059
1572 1059
1578 1059
1579 1059
1580 1059
1581 1059
1582 1059
1583 1059
1605 1059
1606 1059
1607 1059
1648 1059
1453 1060
1551 1060
1573 1060
1578 1060
1579 1060
1580 1060
1581 1060
1582 1060
1583 1060
1605 1060
1606 1060
1607 1060
1649 1060
1454 1061
1552 1061
1574 1061
1578 1061
1579 1061
1580 1061
1581 1061
1582 1061
1583 1061
1619 1061
1620 1061
1621 1061
1650 1061
1455 1062
1553 1062
1575 1062
1578 1062
1579 1062
1580 1062
1581 1062
1582 1062
1583 1062
1619 1062
1620 1062
1621 1062
1651 1062
1456 1063
1554 1063
1576 1063
1578 1063
1579 1063
1580 1063
1581 1063
1582 1063
1583 1063
1619 1063
1620 1063
1621 1063
1652 1063
1457 1064
1555 1064
1577 1064
1578 1064
1579 1064
1580 1064
1581 1064
1582 1064
1583 1064
1619 1064
1620 1064
1621 1064
1653 1064
1556 1065
1578 1065
1579 1065
1580 1065
1581 1065
1582 1065
1583 1065
1557 1066
1578 1066
1579 1066
1580 1066
1581 1066
1582 1066
1583 1066
1558 1067
1578 1067
1579 1067
1580 1067
1581 1067
1582 1067
1583 1067
1559 1068
1578 1068
1579 1068
1580 1068
1581 1068
1582 1068
1583 1068
1560 1069
1578 1069
1579 1069
1580 1069
1581 1069
1582 1069
1583 1069
1561 1070
1578 1070
1579 1070
1580 1070
1581 1070
1582 1070
1583 1070
1562 1071
1578 1071
1579 1071
1580 1071
1581 1071
1582 1071
1583 1071
1563 1072
1578 1072
1579 1072
1580 1072
1581 1072
1582 1072
1583 1072
1564 1073
1578 1073
1579 1073
1580 1073
1581 1073
1582 1073
1583 1073
1565 1074
1578 1074
1579 1074
1580 1074
1581 1074
1582 1074
1583 1074
1566 1075
1578 1075
1579 1075
1580 1075
1581 1075
1582 1075
1583 1075
1567 1076
1578 1076
1579 1076
1580 1076
1581 1076
1582 1076
1583 1076
1568 1077
1578 1077
1579 1077
1580 1077
1581 1077
1582 1077
1583 1077
1569 1078
1578 1078
1579 1078
1580 1078
1581 1078
1582 1078
1583 1078
1570 1079
1578 1079
1579 1079
1580 1079
1581 1079
1582 1079
1583 1079
1571 1080
1578 1080
1579 1080
1580 1080
1581 1080
1582 1080
1583 1080
1572 1081
1578 1081
1579 1081
1580 1081
1581 1081
1582 1081
1583 1081
1573 1082
1578 1082
1579 1082
1580 1082
1581 1082
1582 1082
1583 1082
1574 1083
1578 1083
1579 1083
1580 1083
1581 1083
1582 1083
1583 1083
1575 1084
1578 1084
1579 1084
1580 1084
1581 1084
1582 1084
1583 1084
1576 1085
1578 1085
1579 1085
1580 1085
1581 1085
1582 1085
1583 1085
1577 1086
1578 1086
1579 1086
1580 1086
1581 1086
1582 1086
1583 1086
1578 1087
1579 1087
1580 1087
1581 1087
1582 1087
1583 1087
1585 1087
1586 1087
1578 1088
1579 1088
1580 1088
1581 1088
1582 1088
1583 1088
1585 1088
1587 1088
1578 1089
1579 1089
1580 1089
1581 1089
1582 1089
1583 1089
1584 1089
1585 1089
1588 1089
1578 1090
1579 1090
1580 1090
1581 1090
1582 1090
1583 1090
1593 1090
1594 1090
1578 1091
1579 1091
1580 1091
1581 1091
1582 1091
1583 1091
1593 1091
1595 1091
1578 1092
1579 1092
1580 1092
1581 1092
1582 1092
1583 1092
1592 1092
1593 1092
1596 1092
1578 1093
1579 1093
1580 1093
1581 1093
1582 1093
1583 1093
1601 1093
1602 1093
1578 1094
1579 1094
1580 1094
1581 1094
1582 1094
1583 1094
1601 1094
1603 1094
1578 1095
1579 1095
1580 1095
1581 1095
1582 1095
1583 1095
1600 1095
1601 1095
1604 1095
1578 1096
1579 1096
1580 1096
1581 1096
1582 1096
1583 1096
1609 1096
1610 1096
1578 1097
1579 1097
1580 1097
1581 1097
1582 1097
1583 1097
1609 1097
1611 1097
1578 1098
1579 1098
1580 1098
1581 1098
1582 1098
1583 1098
1608 1098
1609 1098
1612 1098
1578 1099
1579 1099
1580 1099
1581 1099
1582 1099
1583 1099
1616 1099
1578 1100
1579 1100
1580 1100
1581 1100
1582 1100
1583 1100
1617 1100
1578 1101
1579 1101
1580 1101
1581 1101
1582 1101
1583 1101
1618 1101
1534 1102
1654 1102
1535 1103
1655 1103
1536 1104
1656 1104
1537 1105
1657 1105
1698 1105
1699 1105
1700 1105
1701 1105
1702 1105
1703 1105
1709 1105
1710 1105
1711 1105
1717 1105
1718 1105
1719 1105
1725 1105
1726 1105
1727 1105
1733 1105
1734 1105
1735 1105
1739 1105
1740 1105
1741 1105
1538 1106
1658 1106
1698 1106
1699 1106
1700 1106
1701 1106
1702 1106
1703 1106
1709 1106
1710 1106
1711 1106
1717 1106
1718 1106
1719 1106
1725 1106
1726 1106
1727 1106
1733 1106
1734 1106
1735 1106
1739 1106
1740 1106
1741 1106
1539 1107
1659 1107
1698 1107
1699 1107
1700 1107
1701 1107
1702 1107
1703 1107
1709 1107
1710 1107
1711 1107
1717 1107
1718 1107
1719 1107
1725 1107
1726 1107
1727 1107
1733 1107
1734 1107
1735 1107
1739 1107
1740 1107
1741 1107
1540 1108
1660 1108
1698 1108
1699 1108
1700 1108
1701 1108
1702 1108
1703 1108
1717 1108
1718 1108
1719 1108
1742 1108
1541 1109
1661 1109
1698 1109
1699 1109
1700 1109
1701 1109
1702 1109
1703 1109
1717 1109
1718 1109
1719 1109
1743 1109
1542 1110
1662 1110
1698 1110
1699 1110
1700 1110
1701 1110
1702 1110
1703 1110
1717 1110
1718 1110
1719 1110
1744 1110
1543 1111
1663 1111
1698 1111
1699 1111
1700 1111
1701 1111
1702 1111
1703 1111
1709 1111
1710 1111
1711 1111
1745 1111
1544 1112
1664 1112
1698 1112
1699 1112
1700 1112
1701 1112
1702 1112
1703 1112
1709 1112
1710 1112
1711 1112
1746 1112
1545 1113
1665 1113
1698 1113
1699 1113
1700 1113
1701 1113
1702 1113
1703 1113
1709 1113
1710 1113
1711 1113
1747 1113
1546 1114
1666 1114
1698 1114
1699 1114
1700 1114
1701 1114
1702 1114
1703 1114
1733 1114
1734 1114
1735 1114
1748 1114
1547 1115
1667 1115
1698 1115
1699 1115
1700 1115
1701 1115
1702 1115
1703 1115
1733 1115
1734 1115
1735 1115
1749 1115
1548 1116
1668 1116
1698 1116
1699 1116
1700 1116
1701 1116
1702 1116
1703 1116
1733 1116
1734 1116
1735 1116
1750 1116
1549 1117
1669 1117
1698 1117
1699 1117
1700 1117
1701 1117
1702 1117
1703 1117
1725 1117
1726 1117
1727 1117
1751 1117
1550 1118
1670 1118
1698 1118
1699 1118
1700 1118
1701 1118
1702 1118
1703 1118
1725 1118
1726 1118
1727 1118
1752 1118
1551 1119
1671 1119
1698 1119
1699 1119
1700 1119
1701 1119
1702 1119
1703 1119
1725 1119
1726 1119
1727 1119
1753 1119
1552 1120
1672 1120
1698 1120
1699 1120
1700 1120
1701 1120
1702 1120
1703 1120
1739 1120
1740 1120
1741 1120
1754 1120
1553 1121
1673 1121
1698 1121
1699 1121
1700 1121
1701 1121
1702 1121
1703 1121
1739 1121
1740 1121
1741 1121
1755 1121
1554 1122
1674 1122
1698 1122
1699 1122
1700 1122
1701 1122
1702 1122
1703 1122
1739 1122
1740 1122
1741 1122
1756 1122
1555 1123
1675 1123
1698 1123
1699 1123
1700 1123
1701 1123
1702 1123
1703 1123
1739 1123
1740 1123
1741 1123
1757 1123
1556 1124
1654 1124
1676 1124
1698 1124
1699 1124
1700 1124
1701 1124
1702 1124
1703 1124
1709 1124
1710 1124
1711 1124
1717 1124
1718 1124
1719 1124
1725 1124
1726 1124
1727 1124
1733 1124
1734 1124
1735 1124
1739 1124
1740 1124
1741 1124
1557 1125
1655 1125
1677 1125
1698 1125
1699 1125
1700 1125
1701 1125
1702 1125
1703 1125
1709 1125
1710 1125
1711 1125
1717 1125
1718 1125
1719 1125
1725 1125
1726 1125
1727 1125
1733 1125
1734 1125
1735 1125
1739 1125
1740 1125
1741 1125
1558 1126
1656 1126
1678 1126
1698 1126
1699 1126
1700 1126
1701 1126
1702 1126
1703 1126
1709 1126
1710 1126
1711 1126
1717 1126
1718 1126
1719 1126
1725 1126
1726 1126
1727 1126
1733 1126
1734 1126
1735 1126
1739 1126
1740 1126
1741 1126
1559 1127
1657 1127
1679 1127
1698 1127
1699 1127
1700 1127
1701 1127
1702 1127
1703 1127
1709 1127
1710 1127
1711 1127
1717 1127
1718 1127
1719 1127
1725 1127
1726 1127
1727 1127
1733 1127
1734 1127
1735 1127
1739 1127
1740 1127
1741 1127
1560 1128
1658 1128
1680 1128
1698 1128
1699 1128
1700 1128
1701 1128
1702 1128
1703 1128
1709 1128
1710 1128
1711 1128
1717 1128
1718 1128
1719 1128
1725 1128
1726 1128
1727 1128
1733 1128
1734 1128
1735 1128
1739 1128
1740 1128
1741 1128
1561 1129
1659 1129
1681 1129
1698 1129
1699 1129
1700 1129
1701 1129
1702 1129
1703 1129
1709 1129
1710 1129
1711 1129
1717 1129
1718 1129
1719 1129
1725 1129
1726 1129
1727 1129
1733 1129
1734 1129
1735 1129
1739 1129
1740 1129
1741 1129
1562 1130
1660 1130
1682 1130
1698 1130
1699 1130
1700 1130
1701 1130
1702 1130
1703 1130
1717 1130
1718 1130
1719 1130
1758 1130
1563 1131
1661 1131
1683 1131
1698 1131
1699 1131
1700 1131
1701 1131
1702 1131
1703 1131
1717 1131
1718 1131
1719 1131
1759 1131
1564 1132
1662 1132
1684 1132
1698 1132
1699 1132
1700 1132
1701 1132
1702 1132
1703 1132
1717 1132
1718 1132
1719 1132
1760 1132
1565 1133
1663 1133
1685 1133
1698 1133
1699 1133
1700 1133
1701 1133
1702 1133
1703 1133
1709 1133
1710 1133
1711 1133
1761 1133
1566 1134
1664 1134
1686 1134
1698 1134
1699 1134
1700 1134
1701 1134
1702 1134
1703 1134
1709 1134
1710 1134
1711 1134
1762 1134
1567 1135
1665 1135
1687 1135
1698 1135
1699 1135
1700 1135
1701 1135
1702 1135
1703 1135
1709 1135
1710 1135
1711 1135
1763 1135
1568 1136
1666 1136
1688 1136
1698 1136
1699 1136
1700 1136
1701 1136
1702 1136
1703 1136
1733 1136
1734 1136
1735 1136
1764 1136
1569 1137
1667 1137
1689 1137
1698 1137
1699 1137
1700 1137
1701 1137
1702 1137
1703 1137
1733 1137
1734 1137
1735 1137
1765 1137
1570 1138
1668 1138
1690 1138
1698 1138
1699 1138
1700 1138
1701 1138
1702 1138
1703 1138
1733 1138
1734 1138
1735 1138
1766 1138
1571 1139
1669 1139
1691 1139
1698 1139
1699 1139
1700 1139
1701 1139
1702 1139
1703 1139
1725 1139
1726 1139
1727 1139
1767 1139
1572 1140
1670 1140
1692 1140
1698 1140
1699 1140
1700 1140
1701 1140
1702 1140
1703 1140
1725 1140
1726 1140
1727 1140
1768 1140
1573 1141
1671 1141
1693 1141
1698 1141
1699 1141
1700 1141
1701 1141
1702 1141
1703 1141
1725 1141
1726 1141
1727 1141
1769 1141
1574 1142
1672 1142
1694 1142
1698 1142
1699 1142
1700 1142
1701 1142
1702 1142
1703 1142
1739 1142
1740 1142
1741 1142
1770 1142
1575 1143
1673 1143
1695 1143
1698 1143
1699 1143
1700 1143
1701 1143
1702 1143
1703 1143
1739 1143
1740 1143
1741 1143
1771 1143
1576 1144
1674 1144
1696 1144
1698 1144
1699 1144
1700 1144
1701 1144
1702 1144
1703 1144
1739 1144
1740 1144
1741 1144
1772 1144
1577 1145
1675 1145
1697 1145
1698 1145
1699 1145
1700 1145
1701 1145
1702 1145
1703 1145
1739 1145
1740 1145
1741 1145
1773 1145
1676 1146
1698 1146
1699 1146
1700 1146
1701 1146
1702 1146
1703 1146
1677 1147
1698 1147
1699 1147
1700 1147
1701 1147
1702 1147
1703 1147
1678 1148
1698 1148
1699 1148
1700 1148
1701 1148
1702 1148
1703 1148
1679 1149
1698 1149
1699 1149
1700 1149
1701 1149
1702 1149
1703 1149
1680 1150
1698 1150
1699 1150
1700 1150
1701 1150
1702 1150
1703 1150
1681 1151
1698 1151
1699 1151
1700 1151
1701 1151
1702 1151
1703 1151
1682 1152
1698 1152
1699 1152
1700 1152
1701 1152
1702 1152
1703 1152
1683 1153
1698 1153
1699 1153
1700 1153
1701 1153
1702 1153
1703 1153
1684 1154
1698 1154
1699 1154
1700 1154
1701 1154
1702 1154
1703 1154
1685 1155
1698 1155
1699 1155
1700 1155
1701 1155
1702 1155
1703 1155
1686 1156
1698 1156
1699 1156
1700 1156
1701 1156
1702 1156
1703 1156
1687 1157
1698 1157
1699 1157
1700 1157
1701 1157
1702 1157
1703 1157
1688 1158
1698 1158
1699 1158
1700 1158
1701 1158
1702 1158
1703 1158
1689 1159
1698 1159
1699 1159
1700 1159
1701 1159
1702 1159
1703 1159
1690 1160
1698 1160
1699 1160
1700 1160
1701 1160
1702 1160
1703 1160
1691 1161
1698 1161
1699 1161
1700 1161
1701 1161
1702 1161
1703 1161
1692 1162
1698 1162
1699 1162
1700 1162
1701 1162
1702 1162
1703 1162
1693 1163
1698 1163
1699 1163
1700 1163
1701 1163
1702 1163
1703 1163
1694 1164
1698 1164
1699 1164
1700 1164
1701 1164
1702 1164
1703 1164
1695 1165
1698 1165
1699 1165
1700 1165
1701 1165
1702 1165
1703 1165
1696 1166
1698 1166
1699 1166
1700 1166
1701 1166
1702 1166
1703 1166
1697 1167
1698 1167
1699 1167
1700 1167
1701 1167
1702 1167
1703 1167
1698 1168
1699 1168
1700 1168
1701 1168
1702 1168
1703 1168
1705 1168
1706 1168
1698 1169
1699 1169
1700 1169
1701 1169
1702 1169
1703 1169
1705 1169
1707 1169
1698 1170
1699 1170
1700 1170
1701 1170
1702 1170
1703 1170
1704 1170
1705 1170
1708 1170
1698 1171
1699 1171
1700 1171
1701 1171
1702 1171
1703 1171
1713 1171
1714 1171
1698 1172
1699 1172
1700 1172
1701 1172
1702 1172
1703 1172
1713 1172
1715 1172
1698 1173
1699 1173
1700 1173
1701 1173
1702 1173
1703 1173
1712 1173
1713 1173
1716 1173
1698 1174
1699 1174
1700 1174
1701 1174
1702 1174
1703 1174
1721 1174
1722 1174
1698 1175
1699 1175
1700 1175
1701 1175
1702 1175
1703 1175
1721 1175
1723 1175
1698 1176
1699 1176
1700 1176
1701 1176
1702 1176
1703 1176
1720 1176
1721 1176
1724 1176
1698 1177
1699 1177
1700 1177
1701 1177
1702 1177
1703 1177
1729 1177
1730 1177
1698 1178
1699 1178
1700 1178
1701 1178
1702 1178
1703 1178
1729 1178
1731 1178
1698 1179
1699 1179
1700 1179
1701 1179
1702 1179
1703 1179
1728 1179
1729 1179
1732 1179
1698 1180
1699 1180
1700 1180
1701 1180
1702 1180
1703 1180
1736 1180
1698 1181
1699 1181
1700 1181
1701 1181
1702 1181
1703 1181
1737 1181
1698 1182
1699 1182
1700 1182
1701 1182
1702 1182
1703 1182
1738 1182
1654 1183
1655 1184
1656 1185
1657 1186
1658 1187
1659 1188
1660 1189
1661 1190
1662 1191
1663 1192
1664 1193
1665 1194
1666 1195
1667 1196
1668 1197
1669 1198
1670 1199
1671 1200
1672 1201
1673 1202
1674 1203
1675 1204
1676 1205
1677 1206
1678 1207
1679 1208
1680 1209
1681 1210
1682 1211
1683 1212
1684 1213
1685 1214
1686 1215
1687 1216
1688 1217
1689 1218
1690 1219
1691 1220
1692 1221
1693 1222
1694 1223
1695 1224
1696 1225
1697 1226
