%%MatrixMarket matrix coordinate pattern general
1773 1226 27104
45 1
46 1
47 1
48 1
49 1
50 1
51 1
52 1
53 1
54 1
55 1
56 1
57 1
58 1
59 1
60 1
61 1
62 1
63 1
64 1
65 1
66 1
67 1
68 1
69 1
70 1
71 1
72 1
73 1
74 1
75 1
76 1
77 1
78 1
79 1
80 1
81 1
82 1
83 1
84 1
85 1
86 1
87 1
88 1
45 2
46 2
47 2
48 2
49 2
50 2
51 2
52 2
53 2
54 2
55 2
56 2
57 2
58 2
59 2
60 2
61 2
62 2
63 2
64 2
65 2
66 2
67 2
68 2
69 2
70 2
71 2
72 2
73 2
74 2
75 2
76 2
77 2
78 2
79 2
80 2
81 2
82 2
83 2
84 2
85 2
86 2
87 2
88 2
45 3
46 3
47 3
48 3
49 3
50 3
51 3
52 3
53 3
54 3
55 3
56 3
57 3
58 3
59 3
60 3
61 3
62 3
63 3
64 3
65 3
66 3
67 3
68 3
69 3
70 3
71 3
72 3
73 3
74 3
75 3
76 3
77 3
78 3
79 3
80 3
81 3
82 3
83 3
84 3
85 3
86 3
87 3
88 3
45 4
46 4
47 4
48 4
49 4
50 4
51 4
52 4
53 4
54 4
55 4
56 4
57 4
58 4
59 4
60 4
61 4
62 4
63 4
64 4
65 4
66 4
67 4
68 4
69 4
70 4
71 4
72 4
73 4
74 4
75 4
76 4
77 4
78 4
79 4
80 4
81 4
82 4
83 4
84 4
85 4
86 4
87 4
88 4
45 5
46 5
47 5
48 5
49 5
50 5
51 5
52 5
53 5
54 5
55 5
56 5
57 5
58 5
59 5
60 5
61 5
62 5
63 5
64 5
65 5
66 5
67 5
68 5
69 5
70 5
71 5
72 5
73 5
74 5
75 5
76 5
77 5
78 5
79 5
80 5
81 5
82 5
83 5
84 5
85 5
86 5
87 5
88 5
45 6
46 6
47 6
48 6
49 6
50 6
51 6
52 6
53 6
54 6
55 6
56 6
57 6
58 6
59 6
60 6
61 6
62 6
63 6
64 6
65 6
66 6
67 6
68 6
69 6
70 6
71 6
72 6
73 6
74 6
75 6
76 6
77 6
78 6
79 6
80 6
81 6
82 6
83 6
84 6
85 6
86 6
87 6
88 6
45 7
46 7
47 7
48 7
49 7
50 7
51 7
52 7
53 7
54 7
55 7
56 7
57 7
58 7
59 7
60 7
61 7
62 7
63 7
64 7
65 7
66 7
67 7
68 7
69 7
70 7
71 7
72 7
73 7
74 7
75 7
76 7
77 7
78 7
79 7
80 7
81 7
82 7
83 7
84 7
85 7
86 7
87 7
88 7
45 8
46 8
47 8
48 8
49 8
50 8
51 8
52 8
53 8
54 8
55 8
56 8
57 8
58 8
59 8
60 8
61 8
62 8
63 8
64 8
65 8
66 8
67 8
68 8
69 8
70 8
71 8
72 8
73 8
74 8
75 8
76 8
77 8
78 8
79 8
80 8
81 8
82 8
83 8
84 8
85 8
86 8
87 8
88 8
45 9
46 9
47 9
48 9
49 9
50 9
51 9
52 9
53 9
54 9
55 9
56 9
57 9
58 9
59 9
60 9
61 9
62 9
63 9
64 9
65 9
66 9
67 9
68 9
69 9
70 9
71 9
72 9
73 9
74 9
75 9
76 9
77 9
78 9
79 9
80 9
81 9
82 9
83 9
84 9
85 9
86 9
87 9
88 9
45 10
46 10
47 10
48 10
49 10
50 10
51 10
52 10
53 10
54 10
55 10
56 10
57 10
58 10
59 10
60 10
61 10
62 10
63 10
64 10
65 10
66 10
67 10
68 10
69 10
70 10
71 10
72 10
73 10
74 10
75 10
76 10
77 10
78 10
79 10
80 10
81 10
82 10
83 10
84 10
85 10
86 10
87 10
88 10
45 11
46 11
47 11
48 11
49 11
50 11
51 11
52 11
53 11
54 11
55 11
56 11
57 11
58 11
59 11
60 11
61 11
62 11
63 11
64 11
65 11
66 11
67 11
68 11
69 11
70 11
71 11
72 11
73 11
74 11
75 11
76 11
77 11
78 11
79 11
80 11
81 11
82 11
83 11
84 11
85 11
86 11
87 11
88 11
45 12
46 12
47 12
48 12
49 12
50 12
51 12
52 12
53 12
54 12
55 12
56 12
57 12
58 12
59 12
60 12
61 12
62 12
63 12
64 12
65 12
66 12
67 12
68 12
69 12
70 12
71 12
72 12
73 12
74 12
75 12
76 12
77 12
78 12
79 12
80 12
81 12
82 12
83 12
84 12
85 12
86 12
87 12
88 12
45 13
46 13
47 13
48 13
49 13
50 13
51 13
52 13
53 13
54 13
55 13
56 13
57 13
58 13
59 13
60 13
61 13
62 13
63 13
64 13
65 13
66 13
67 13
68 13
69 13
70 13
71 13
72 13
73 13
74 13
75 13
76 13
77 13
78 13
79 13
80 13
81 13
82 13
83 13
84 13
85 13
86 13
87 13
88 13
45 14
46 14
47 14
48 14
49 14
50 14
51 14
52 14
53 14
54 14
55 14
56 14
57 14
58 14
59 14
60 14
61 14
62 14
63 14
64 14
65 14
66 14
67 14
68 14
69 14
70 14
71 14
72 14
73 14
74 14
75 14
76 14
77 14
78 14
79 14
80 14
81 14
82 14
83 14
84 14
85 14
86 14
87 14
88 14
45 15
46 15
47 15
48 15
49 15
50 15
51 15
52 15
53 15
54 15
55 15
56 15
57 15
58 15
59 15
60 15
61 15
62 15
63 15
64 15
65 15
66 15
67 15
68 15
69 15
70 15
71 15
72 15
73 15
74 15
75 15
76 15
77 15
78 15
79 15
80 15
81 15
82 15
83 15
84 15
85 15
86 15
87 15
88 15
45 16
46 16
47 16
48 16
49 16
50 16
51 16
52 16
53 16
54 16
55 16
56 16
57 16
58 16
59 16
60 16
61 16
62 16
63 16
64 16
65 16
66 16
67 16
68 16
69 16
70 16
71 16
72 16
73 16
74 16
75 16
76 16
77 16
78 16
79 16
80 16
81 16
82 16
83 16
84 16
85 16
86 16
87 16
88 16
45 17
46 17
47 17
48 17
49 17
50 17
51 17
52 17
53 17
54 17
55 17
56 17
57 17
58 17
59 17
60 17
61 17
62 17
63 17
64 17
65 17
66 17
67 17
68 17
69 17
70 17
71 17
72 17
73 17
74 17
75 17
76 17
77 17
78 17
79 17
80 17
81 17
82 17
83 17
84 17
85 17
86 17
87 17
88 17
45 18
46 18
47 18
48 18
49 18
50 18
51 18
52 18
53 18
54 18
55 18
56 18
57 18
58 18
59 18
60 18
61 18
62 18
63 18
64 18
65 18
66 18
67 18
68 18
69 18
70 18
71 18
72 18
73 18
74 18
75 18
76 18
77 18
78 18
79 18
80 18
81 18
82 18
83 18
84 18
85 18
86 18
87 18
88 18
45 19
46 19
47 19
48 19
49 19
50 19
51 19
52 19
53 19
54 19
55 19
56 19
57 19
58 19
59 19
60 19
61 19
62 19
63 19
64 19
65 19
66 19
67 19
68 19
69 19
70 19
71 19
72 19
73 19
74 19
75 19
76 19
77 19
78 19
79 19
80 19
81 19
82 19
83 19
84 19
85 19
86 19
87 19
88 19
45 20
46 20
47 20
48 20
49 20
50 20
51 20
52 20
53 20
54 20
55 20
56 20
57 20
58 20
59 20
60 20
61 20
62 20
63 20
64 20
65 20
66 20
67 20
68 20
69 20
70 20
71 20
72 20
73 20
74 20
75 20
76 20
77 20
78 20
79 20
80 20
81 20
82 20
83 20
84 20
85 20
86 20
87 20
88 20
45 21
46 21
47 21
48 21
49 21
50 21
51 21
52 21
53 21
54 21
55 21
56 21
57 21
58 21
59 21
60 21
61 21
62 21
63 21
64 21
65 21
66 21
67 21
68 21
69 21
70 21
71 21
72 21
73 21
74 21
75 21
76 21
77 21
78 21
79 21
80 21
81 21
82 21
83 21
84 21
85 21
86 21
87 21
88 21
45 22
46 22
47 22
48 22
49 22
50 22
51 22
52 22
53 22
54 22
55 22
56 22
57 22
58 22
59 22
60 22
61 22
62 22
63 22
64 22
65 22
66 22
67 22
68 22
69 22
70 22
71 22
72 22
73 22
74 22
75 22
76 22
77 22
78 22
79 22
80 22
81 22
82 22
83 22
84 22
85 22
86 22
87 22
88 22
45 23
46 23
47 23
48 23
49 23
50 23
51 23
52 23
53 23
54 23
55 23
56 23
57 23
58 23
59 23
60 23
61 23
62 23
63 23
64 23
65 23
66 23
67 23
68 23
69 23
70 23
71 23
72 23
73 23
74 23
75 23
76 23
77 23
78 23
79 23
80 23
81 23
82 23
83 23
84 23
85 23
86 23
87 23
88 23
45 24
46 24
47 24
48 24
49 24
50 24
51 24
52 24
53 24
54 24
55 24
56 24
57 24
58 24
59 24
60 24
61 24
62 24
63 24
64 24
65 24
66 24
67 24
68 24
69 24
70 24
71 24
72 24
73 24
74 24
75 24
76 24
77 24
78 24
79 24
80 24
81 24
82 24
83 24
84 24
85 24
86 24
87 24
88 24
45 25
46 25
47 25
48 25
49 25
50 25
51 25
52 25
53 25
54 25
55 25
56 25
57 25
58 25
59 25
60 25
61 25
62 25
63 25
64 25
65 25
66 25
67 25
68 25
69 25
70 25
71 25
72 25
73 25
74 25
75 25
76 25
77 25
78 25
79 25
80 25
81 25
82 25
83 25
84 25
85 25
86 25
87 25
88 25
45 26
46 26
47 26
48 26
49 26
50 26
51 26
52 26
53 26
54 26
55 26
56 26
57 26
58 26
59 26
60 26
61 26
62 26
63 26
64 26
65 26
66 26
67 26
68 26
69 26
70 26
71 26
72 26
73 26
74 26
75 26
76 26
77 26
78 26
79 26
80 26
81 26
82 26
83 26
84 26
85 26
86 26
87 26
88 26
45 27
46 27
47 27
48 27
49 27
50 27
51 27
52 27
53 27
54 27
55 27
56 27
57 27
58 27
59 27
60 27
61 27
62 27
63 27
64 27
65 27
66 27
67 27
68 27
69 27
70 27
71 27
72 27
73 27
74 27
75 27
76 27
77 27
78 27
79 27
80 27
81 27
82 27
83 27
84 27
85 27
86 27
87 27
88 27
45 28
46 28
47 28
48 28
49 28
50 28
51 28
52 28
53 28
54 28
55 28
56 28
57 28
58 28
59 28
60 28
61 28
62 28
63 28
64 28
65 28
66 28
67 28
68 28
69 28
70 28
71 28
72 28
73 28
74 28
75 28
76 28
77 28
78 28
79 28
80 28
81 28
82 28
83 28
84 28
85 28
86 28
87 28
88 28
45 29
46 29
47 29
48 29
49 29
50 29
51 29
52 29
53 29
54 29
55 29
56 29
57 29
58 29
59 29
60 29
61 29
62 29
63 29
64 29
65 29
66 29
67 29
68 29
69 29
70 29
71 29
72 29
73 29
74 29
75 29
76 29
77 29
78 29
79 29
80 29
81 29
82 29
83 29
84 29
85 29
86 29
87 29
88 29
45 30
46 30
47 30
48 30
49 30
50 30
51 30
52 30
53 30
54 30
55 30
56 30
57 30
58 30
59 30
60 30
61 30
62 30
63 30
64 30
65 30
66 30
67 30
68 30
69 30
70 30
71 30
72 30
73 30
74 30
75 30
76 30
77 30
78 30
79 30
80 30
81 30
82 30
83 30
84 30
85 30
86 30
87 30
88 30
45 31
46 31
47 31
48 31
49 31
50 31
51 31
52 31
53 31
54 31
55 31
56 31
57 31
58 31
59 31
60 31
61 31
62 31
63 31
64 31
65 31
66 31
67 31
68 31
69 31
70 31
71 31
72 31
73 31
74 31
75 31
76 31
77 31
78 31
79 31
80 31
81 31
82 31
83 31
84 31
85 31
86 31
87 31
88 31
45 32
46 32
47 32
48 32
49 32
50 32
51 32
52 32
53 32
54 32
55 32
56 32
57 32
58 32
59 32
60 32
61 32
62 32
63 32
64 32
65 32
66 32
67 32
68 32
69 32
70 32
71 32
72 32
73 32
74 32
75 32
76 32
77 32
78 32
79 32
80 32
81 32
82 32
83 32
84 32
85 32
86 32
87 32
88 32
45 33
46 33
47 33
48 33
49 33
50 33
51 33
52 33
53 33
54 33
55 33
56 33
57 33
58 33
59 33
60 33
61 33
62 33
63 33
64 33
65 33
66 33
67 33
68 33
69 33
70 33
71 33
72 33
73 33
74 33
75 33
76 33
77 33
78 33
79 33
80 33
81 33
82 33
83 33
84 33
85 33
86 33
87 33
88 33
45 34
46 34
47 34
48 34
49 34
50 34
51 34
52 34
53 34
54 34
55 34
56 34
57 34
58 34
59 34
60 34
61 34
62 34
63 34
64 34
65 34
66 34
67 34
68 34
69 34
70 34
71 34
72 34
73 34
74 34
75 34
76 34
77 34
78 34
79 34
80 34
81 34
82 34
83 34
84 34
85 34
86 34
87 34
88 34
45 35
46 35
47 35
48 35
49 35
50 35
51 35
52 35
53 35
54 35
55 35
56 35
57 35
58 35
59 35
60 35
61 35
62 35
63 35
64 35
65 35
66 35
67 35
68 35
69 35
70 35
71 35
72 35
73 35
74 35
75 35
76 35
77 35
78 35
79 35
80 35
81 35
82 35
83 35
84 35
85 35
86 35
87 35
88 35
45 36
46 36
47 36
48 36
49 36
50 36
51 36
52 36
53 36
54 36
55 36
56 36
57 36
58 36
59 36
60 36
61 36
62 36
63 36
64 36
65 36
66 36
67 36
68 36
69 36
70 36
71 36
72 36
73 36
74 36
75 36
76 36
77 36
78 36
79 36
80 36
81 36
82 36
83 36
84 36
85 36
86 36
87 36
88 36
45 37
46 37
47 37
48 37
49 37
50 37
51 37
52 37
53 37
54 37
55 37
56 37
57 37
58 37
59 37
60 37
61 37
62 37
63 37
64 37
65 37
66 37
67 37
68 37
69 37
70 37
71 37
72 37
73 37
74 37
75 37
76 37
77 37
78 37
79 37
80 37
81 37
82 37
83 37
84 37
85 37
86 37
87 37
88 37
45 38
46 38
47 38
48 38
49 38
50 38
51 38
52 38
53 38
54 38
55 38
56 38
57 38
58 38
59 38
60 38
61 38
62 38
63 38
64 38
65 38
66 38
67 38
68 38
69 38
70 38
71 38
72 38
73 38
74 38
75 38
76 38
77 38
78 38
79 38
80 38
81 38
82 38
83 38
84 38
85 38
86 38
87 38
88 38
45 39
46 39
47 39
48 39
49 39
50 39
51 39
52 39
53 39
54 39
55 39
56 39
57 39
58 39
59 39
60 39
61 39
62 39
63 39
64 39
65 39
66 39
67 39
68 39
69 39
70 39
71 39
72 39
73 39
74 39
75 39
76 39
77 39
78 39
79 39
80 39
81 39
82 39
83 39
84 39
85 39
86 39
87 39
88 39
45 40
46 40
47 40
48 40
49 40
50 40
51 40
52 40
53 40
54 40
55 40
56 40
57 40
58 40
59 40
60 40
61 40
62 40
63 40
64 40
65 40
66 40
67 40
68 40
69 40
70 40
71 40
72 40
73 40
74 40
75 40
76 40
77 40
78 40
79 40
80 40
81 40
82 40
83 40
84 40
85 40
86 40
87 40
88 40
45 41
46 41
47 41
48 41
49 41
50 41
51 41
52 41
53 41
54 41
55 41
56 41
57 41
58 41
59 41
60 41
61 41
62 41
63 41
64 41
65 41
66 41
67 41
68 41
69 41
70 41
71 41
72 41
73 41
74 41
75 41
76 41
77 41
78 41
79 41
80 41
81 41
82 41
83 41
84 41
85 41
86 41
87 41
88 41
45 42
46 42
47 42
48 42
49 42
50 42
51 42
52 42
53 42
54 42
55 42
56 42
57 42
58 42
59 42
60 42
61 42
62 42
63 42
64 42
65 42
66 42
67 42
68 42
69 42
70 42
71 42
72 42
73 42
74 42
75 42
76 42
77 42
78 42
79 42
80 42
81 42
82 42
83 42
84 42
85 42
86 42
87 42
88 42
45 43
46 43
47 43
48 43
49 43
50 43
51 43
52 43
53 43
54 43
55 43
56 43
57 43
58 43
59 43
60 43
61 43
62 43
63 43
64 43
65 43
66 43
67 43
68 43
69 43
70 43
71 43
72 43
73 43
74 43
75 43
76 43
77 43
78 43
79 43
80 43
81 43
82 43
83 43
84 43
85 43
86 43
87 43
88 43
45 44
46 44
47 44
48 44
49 44
50 44
51 44
52 44
53 44
54 44
55 44
56 44
57 44
58 44
59 44
60 44
61 44
62 44
63 44
64 44
65 44
66 44
67 44
68 44
69 44
70 44
71 44
72 44
73 44
74 44
75 44
76 44
77 44
78 44
79 44
80 44
81 44
82 44
83 44
84 44
85 44
86 44
87 44
88 44
150 98
151 98
152 98
153 98
154 98
155 98
156 98
157 98
158 98
159 98
160 98
161 98
162 98
163 98
164 98
165 98
166 98
167 98
168 98
169 98
170 98
171 98
172 98
173 98
174 98
175 98
176 98
177 98
178 98
179 98
180 98
181 98
182 98
183 98
184 98
185 98
186 98
187 98
188 98
189 98
190 98
191 98
192 98
193 98
150 99
151 99
152 99
153 99
154 99
155 99
156 99
157 99
158 99
159 99
160 99
161 99
162 99
163 99
164 99
165 99
166 99
167 99
168 99
169 99
170 99
171 99
172 99
173 99
174 99
175 99
176 99
177 99
178 99
179 99
180 99
181 99
182 99
183 99
184 99
185 99
186 99
187 99
188 99
189 99
190 99
191 99
192 99
193 99
150 100
151 100
152 100
153 100
154 100
155 100
156 100
157 100
158 100
159 100
160 100
161 100
162 100
163 100
164 100
165 100
166 100
167 100
168 100
169 100
170 100
171 100
172 100
173 100
174 100
175 100
176 100
177 100
178 100
179 100
180 100
181 100
182 100
183 100
184 100
185 100
186 100
187 100
188 100
189 100
190 100
191 100
192 100
193 100
150 101
151 101
152 101
153 101
154 101
155 101
156 101
157 101
158 101
159 101
160 101
161 101
162 101
163 101
164 101
165 101
166 101
167 101
168 101
169 101
170 101
171 101
172 101
173 101
174 101
175 101
176 101
177 101
178 101
179 101
180 101
181 101
182 101
183 101
184 101
185 101
186 101
187 101
188 101
189 101
190 101
191 101
192 101
193 101
150 102
151 102
152 102
153 102
154 102
155 102
156 102
157 102
158 102
159 102
160 102
161 102
162 102
163 102
164 102
165 102
166 102
167 102
168 102
169 102
170 102
171 102
172 102
173 102
174 102
175 102
176 102
177 102
178 102
179 102
180 102
181 102
182 102
183 102
184 102
185 102
186 102
187 102
188 102
189 102
190 102
191 102
192 102
193 102
150 103
151 103
152 103
153 103
154 103
155 103
156 103
157 103
158 103
159 103
160 103
161 103
162 103
163 103
164 103
165 103
166 103
167 103
168 103
169 103
170 103
171 103
172 103
173 103
174 103
175 103
176 103
177 103
178 103
179 103
180 103
181 103
182 103
183 103
184 103
185 103
186 103
187 103
188 103
189 103
190 103
191 103
192 103
193 103
150 104
151 104
152 104
153 104
154 104
155 104
156 104
157 104
158 104
159 104
160 104
161 104
162 104
163 104
164 104
165 104
166 104
167 104
168 104
169 104
170 104
171 104
172 104
173 104
174 104
175 104
176 104
177 104
178 104
179 104
180 104
181 104
182 104
183 104
184 104
185 104
186 104
187 104
188 104
189 104
190 104
191 104
192 104
193 104
150 105
151 105
152 105
153 105
154 105
155 105
156 105
157 105
158 105
159 105
160 105
161 105
162 105
163 105
164 105
165 105
166 105
167 105
168 105
169 105
170 105
171 105
172 105
173 105
174 105
175 105
176 105
177 105
178 105
179 105
180 105
181 105
182 105
183 105
184 105
185 105
186 105
187 105
188 105
189 105
190 105
191 105
192 105
193 105
150 106
151 106
152 106
153 106
154 106
155 106
156 106
157 106
158 106
159 106
160 106
161 106
162 106
163 106
164 106
165 106
166 106
167 106
168 106
169 106
170 106
171 106
172 106
173 106
174 106
175 106
176 106
177 106
178 106
179 106
180 106
181 106
182 106
183 106
184 106
185 106
186 106
187 106
188 106
189 106
190 106
191 106
192 106
193 106
150 107
151 107
152 107
153 107
154 107
155 107
156 107
157 107
158 107
159 107
160 107
161 107
162 107
163 107
164 107
165 107
166 107
167 107
168 107
169 107
170 107
171 107
172 107
173 107
174 107
175 107
176 107
177 107
178 107
179 107
180 107
181 107
182 107
183 107
184 107
185 107
186 107
187 107
188 107
189 107
190 107
191 107
192 107
193 107
150 108
151 108
152 108
153 108
154 108
155 108
156 108
157 108
158 108
159 108
160 108
161 108
162 108
163 108
164 108
165 108
166 108
167 108
168 108
169 108
170 108
171 108
172 108
173 108
174 108
175 108
176 108
177 108
178 108
179 108
180 108
181 108
182 108
183 108
184 108
185 108
186 108
187 108
188 108
189 108
190 108
191 108
192 108
193 108
150 109
151 109
152 109
153 109
154 109
155 109
156 109
157 109
158 109
159 109
160 109
161 109
162 109
163 109
164 109
165 109
166 109
167 109
168 109
169 109
170 109
171 109
172 109
173 109
174 109
175 109
176 109
177 109
178 109
179 109
180 109
181 109
182 109
183 109
184 109
185 109
186 109
187 109
188 109
189 109
190 109
191 109
192 109
193 109
150 110
151 110
152 110
153 110
154 110
155 110
156 110
157 110
158 110
159 110
160 110
161 110
162 110
163 110
164 110
165 110
166 110
167 110
168 110
169 110
170 110
171 110
172 110
173 110
174 110
175 110
176 110
177 110
178 110
179 110
180 110
181 110
182 110
183 110
184 110
185 110
186 110
187 110
188 110
189 110
190 110
191 110
192 110
193 110
150 111
151 111
152 111
153 111
154 111
155 111
156 111
157 111
158 111
159 111
160 111
161 111
162 111
163 111
164 111
165 111
166 111
167 111
168 111
169 111
170 111
171 111
172 111
173 111
174 111
175 111
176 111
177 111
178 111
179 111
180 111
181 111
182 111
183 111
184 111
185 111
186 111
187 111
188 111
189 111
190 111
191 111
192 111
193 111
150 112
151 112
152 112
153 112
154 112
155 112
156 112
157 112
158 112
159 112
160 112
161 112
162 112
163 112
164 112
165 112
166 112
167 112
168 112
169 112
170 112
171 112
172 112
173 112
174 112
175 112
176 112
177 112
178 112
179 112
180 112
181 112
182 112
183 112
184 112
185 112
186 112
187 112
188 112
189 112
190 112
191 112
192 112
193 112
150 113
151 113
152 113
153 113
154 113
155 113
156 113
157 113
158 113
159 113
160 113
161 113
162 113
163 113
164 113
165 113
166 113
167 113
168 113
169 113
170 113
171 113
172 113
173 113
174 113
175 113
176 113
177 113
178 113
179 113
180 113
181 113
182 113
183 113
184 113
185 113
186 113
187 113
188 113
189 113
190 113
191 113
192 113
193 113
150 114
151 114
152 114
153 114
154 114
155 114
156 114
157 114
158 114
159 114
160 114
161 114
162 114
163 114
164 114
165 114
166 114
167 114
168 114
169 114
170 114
171 114
172 114
173 114
174 114
175 114
176 114
177 114
178 114
179 114
180 114
181 114
182 114
183 114
184 114
185 114
186 114
187 114
188 114
189 114
190 114
191 114
192 114
193 114
150 115
151 115
152 115
153 115
154 115
155 115
156 115
157 115
158 115
159 115
160 115
161 115
162 115
163 115
164 115
165 115
166 115
167 115
168 115
169 115
170 115
171 115
172 115
173 115
174 115
175 115
176 115
177 115
178 115
179 115
180 115
181 115
182 115
183 115
184 115
185 115
186 115
187 115
188 115
189 115
190 115
191 115
192 115
193 115
150 116
151 116
152 116
153 116
154 116
155 116
156 116
157 116
158 116
159 116
160 116
161 116
162 116
163 116
164 116
165 116
166 116
167 116
168 116
169 116
170 116
171 116
172 116
173 116
174 116
175 116
176 116
177 116
178 116
179 116
180 116
181 116
182 116
183 116
184 116
185 116
186 116
187 116
188 116
189 116
190 116
191 116
192 116
193 116
150 117
151 117
152 117
153 117
154 117
155 117
156 117
157 117
158 117
159 117
160 117
161 117
162 117
163 117
164 117
165 117
166 117
167 117
168 117
169 117
170 117
171 117
172 117
173 117
174 117
175 117
176 117
177 117
178 117
179 117
180 117
181 117
182 117
183 117
184 117
185 117
186 117
187 117
188 117
189 117
190 117
191 117
192 117
193 117
150 118
151 118
152 118
153 118
154 118
155 118
156 118
157 118
158 118
159 118
160 118
161 118
162 118
163 118
164 118
165 118
166 118
167 118
168 118
169 118
170 118
171 118
172 118
173 118
174 118
175 118
176 118
177 118
178 118
179 118
180 118
181 118
182 118
183 118
184 118
185 118
186 118
187 118
188 118
189 118
190 118
191 118
192 118
193 118
150 119
151 119
152 119
153 119
154 119
155 119
156 119
157 119
158 119
159 119
160 119
161 119
162 119
163 119
164 119
165 119
166 119
167 119
168 119
169 119
170 119
171 119
172 119
173 119
174 119
175 119
176 119
177 119
178 119
179 119
180 119
181 119
182 119
183 119
184 119
185 119
186 119
187 119
188 119
189 119
190 119
191 119
192 119
193 119
150 120
151 120
152 120
153 120
154 120
155 120
156 120
157 120
158 120
159 120
160 120
161 120
162 120
163 120
164 120
165 120
166 120
167 120
168 120
169 120
170 120
171 120
172 120
173 120
174 120
175 120
176 120
177 120
178 120
179 120
180 120
181 120
182 120
183 120
184 120
185 120
186 120
187 120
188 120
189 120
190 120
191 120
192 120
193 120
150 121
151 121
152 121
153 121
154 121
155 121
156 121
157 121
158 121
159 121
160 121
161 121
162 121
163 121
164 121
165 121
166 121
167 121
168 121
169 121
170 121
171 121
172 121
173 121
174 121
175 121
176 121
177 121
178 121
179 121
180 121
181 121
182 121
183 121
184 121
185 121
186 121
187 121
188 121
189 121
190 121
191 121
192 121
193 121
150 122
151 122
152 122
153 122
154 122
155 122
156 122
157 122
158 122
159 122
160 122
161 122
162 122
163 122
164 122
165 122
166 122
167 122
168 122
169 122
170 122
171 122
172 122
173 122
174 122
175 122
176 122
177 122
178 122
179 122
180 122
181 122
182 122
183 122
184 122
185 122
186 122
187 122
188 122
189 122
190 122
191 122
192 122
193 122
150 123
151 123
152 123
153 123
154 123
155 123
156 123
157 123
158 123
159 123
160 123
161 123
162 123
163 123
164 123
165 123
166 123
167 123
168 123
169 123
170 123
171 123
172 123
173 123
174 123
175 123
176 123
177 123
178 123
179 123
180 123
181 123
182 123
183 123
184 123
185 123
186 123
187 123
188 123
189 123
190 123
191 123
192 123
193 123
150 124
151 124
152 124
153 124
154 124
155 124
156 124
157 124
158 124
159 124
160 124
161 124
162 124
163 124
164 124
165 124
166 124
167 124
168 124
169 124
170 124
171 124
172 124
173 124
174 124
175 124
176 124
177 124
178 124
179 124
180 124
181 124
182 124
183 124
184 124
185 124
186 124
187 124
188 124
189 124
190 124
191 124
192 124
193 124
150 125
151 125
152 125
153 125
154 125
155 125
156 125
157 125
158 125
159 125
160 125
161 125
162 125
163 125
164 125
165 125
166 125
167 125
168 125
169 125
170 125
171 125
172 125
173 125
174 125
175 125
176 125
177 125
178 125
179 125
180 125
181 125
182 125
183 125
184 125
185 125
186 125
187 125
188 125
189 125
190 125
191 125
192 125
193 125
150 126
151 126
152 126
153 126
154 126
155 126
156 126
157 126
158 126
159 126
160 126
161 126
162 126
163 126
164 126
165 126
166 126
167 126
168 126
169 126
170 126
171 126
172 126
173 126
174 126
175 126
176 126
177 126
178 126
179 126
180 126
181 126
182 126
183 126
184 126
185 126
186 126
187 126
188 126
189 126
190 126
191 126
192 126
193 126
150 127
151 127
152 127
153 127
154 127
155 127
156 127
157 127
158 127
159 127
160 127
161 127
162 127
163 127
164 127
165 127
166 127
167 127
168 127
169 127
170 127
171 127
172 127
173 127
174 127
175 127
176 127
177 127
178 127
179 127
180 127
181 127
182 127
183 127
184 127
185 127
186 127
187 127
188 127
189 127
190 127
191 127
192 127
193 127
150 128
151 128
152 128
153 128
154 128
155 128
156 128
157 128
158 128
159 128
160 128
161 128
162 128
163 128
164 128
165 128
166 128
167 128
168 128
169 128
170 128
171 128
172 128
173 128
174 128
175 128
176 128
177 128
178 128
179 128
180 128
181 128
182 128
183 128
184 128
185 128
186 128
187 128
188 128
189 128
190 128
191 128
192 128
193 128
150 129
151 129
152 129
153 129
154 129
155 129
156 129
157 129
158 129
159 129
160 129
161 129
162 129
163 129
164 129
165 129
166 129
167 129
168 129
169 129
170 129
171 129
172 129
173 129
174 129
175 129
176 129
177 129
178 129
179 129
180 129
181 129
182 129
183 129
184 129
185 129
186 129
187 129
188 129
189 129
190 129
191 129
192 129
193 129
150 130
151 130
152 130
153 130
154 130
155 130
156 130
157 130
158 130
159 130
160 130
161 130
162 130
163 130
164 130
165 130
166 130
167 130
168 130
169 130
170 130
171 130
172 130
173 130
174 130
175 130
176 130
177 130
178 130
179 130
180 130
181 130
182 130
183 130
184 130
185 130
186 130
187 130
188 130
189 130
190 130
191 130
192 130
193 130
150 131
151 131
152 131
153 131
154 131
155 131
156 131
157 131
158 131
159 131
160 131
161 131
162 131
163 131
164 131
165 131
166 131
167 131
168 131
169 131
170 131
171 131
172 131
173 131
174 131
175 131
176 131
177 131
178 131
179 131
180 131
181 131
182 131
183 131
184 131
185 131
186 131
187 131
188 131
189 131
190 131
191 131
192 131
193 131
150 132
151 132
152 132
153 132
154 132
155 132
156 132
157 132
158 132
159 132
160 132
161 132
162 132
163 132
164 132
165 132
166 132
167 132
168 132
169 132
170 132
171 132
172 132
173 132
174 132
175 132
176 132
177 132
178 132
179 132
180 132
181 132
182 132
183 132
184 132
185 132
186 132
187 132
188 132
189 132
190 132
191 132
192 132
193 132
150 133
151 133
152 133
153 133
154 133
155 133
156 133
157 133
158 133
159 133
160 133
161 133
162 133
163 133
164 133
165 133
166 133
167 133
168 133
169 133
170 133
171 133
172 133
173 133
174 133
175 133
176 133
177 133
178 133
179 133
180 133
181 133
182 133
183 133
184 133
185 133
186 133
187 133
188 133
189 133
190 133
191 133
192 133
193 133
150 134
151 134
152 134
153 134
154 134
155 134
156 134
157 134
158 134
159 134
160 134
161 134
162 134
163 134
164 134
165 134
166 134
167 134
168 134
169 134
170 134
171 134
172 134
173 134
174 134
175 134
176 134
177 134
178 134
179 134
180 134
181 134
182 134
183 134
184 134
185 134
186 134
187 134
188 134
189 134
190 134
191 134
192 134
193 134
150 135
151 135
152 135
153 135
154 135
155 135
156 135
157 135
158 135
159 135
160 135
161 135
162 135
163 135
164 135
165 135
166 135
167 135
168 135
169 135
170 135
171 135
172 135
173 135
174 135
175 135
176 135
177 135
178 135
179 135
180 135
181 135
182 135
183 135
184 135
185 135
186 135
187 135
188 135
189 135
190 135
191 135
192 135
193 135
150 136
151 136
152 136
153 136
154 136
155 136
156 136
157 136
158 136
159 136
160 136
161 136
162 136
163 136
164 136
165 136
166 136
167 136
168 136
169 136
170 136
171 136
172 136
173 136
174 136
175 136
176 136
177 136
178 136
179 136
180 136
181 136
182 136
183 136
184 136
185 136
186 136
187 136
188 136
189 136
190 136
191 136
192 136
193 136
150 137
151 137
152 137
153 137
154 137
155 137
156 137
157 137
158 137
159 137
160 137
161 137
162 137
163 137
164 137
165 137
166 137
167 137
168 137
169 137
170 137
171 137
172 137
173 137
174 137
175 137
176 137
177 137
178 137
179 137
180 137
181 137
182 137
183 137
184 137
185 137
186 137
187 137
188 137
189 137
190 137
191 137
192 137
193 137
150 138
151 138
152 138
153 138
154 138
155 138
156 138
157 138
158 138
159 138
160 138
161 138
162 138
163 138
164 138
165 138
166 138
167 138
168 138
169 138
170 138
171 138
172 138
173 138
174 138
175 138
176 138
177 138
178 138
179 138
180 138
181 138
182 138
183 138
184 138
185 138
186 138
187 138
188 138
189 138
190 138
191 138
192 138
193 138
150 139
151 139
152 139
153 139
154 139
155 139
156 139
157 139
158 139
159 139
160 139
161 139
162 139
163 139
164 139
165 139
166 139
167 139
168 139
169 139
170 139
171 139
172 139
173 139
174 139
175 139
176 139
177 139
178 139
179 139
180 139
181 139
182 139
183 139
184 139
185 139
186 139
187 139
188 139
189 139
190 139
191 139
192 139
193 139
150 140
151 140
152 140
153 140
154 140
155 140
156 140
157 140
158 140
159 140
160 140
161 140
162 140
163 140
164 140
165 140
166 140
167 140
168 140
169 140
170 140
171 140
172 140
173 140
174 140
175 140
176 140
177 140
178 140
179 140
180 140
181 140
182 140
183 140
184 140
185 140
186 140
187 140
188 140
189 140
190 140
191 140
192 140
193 140
150 141
151 141
152 141
153 141
154 141
155 141
156 141
157 141
158 141
159 141
160 141
161 141
162 141
163 141
164 141
165 141
166 141
167 141
168 141
169 141
170 141
171 141
172 141
173 141
174 141
175 141
176 141
177 141
178 141
179 141
180 141
181 141
182 141
183 141
184 141
185 141
186 141
187 141
188 141
189 141
190 141
191 141
192 141
193 141
302 195
303 195
304 195
305 195
306 195
307 195
308 195
309 195
310 195
311 195
312 195
313 195
314 195
315 195
316 195
317 195
318 195
319 195
320 195
321 195
322 195
323 195
324 195
325 195
326 195
327 195
328 195
329 195
330 195
331 195
332 195
333 195
334 195
335 195
336 195
337 195
338 195
339 195
340 195
341 195
342 195
343 195
344 195
345 195
302 196
303 196
304 196
305 196
306 196
307 196
308 196
309 196
310 196
311 196
312 196
313 196
314 196
315 196
316 196
317 196
318 196
319 196
320 196
321 196
322 196
323 196
324 196
325 196
326 196
327 196
328 196
329 196
330 196
331 196
332 196
333 196
334 196
335 196
336 196
337 196
338 196
339 196
340 196
341 196
342 196
343 196
344 196
345 196
302 197
303 197
304 197
305 197
306 197
307 197
308 197
309 197
310 197
311 197
312 197
313 197
314 197
315 197
316 197
317 197
318 197
319 197
320 197
321 197
322 197
323 197
324 197
325 197
326 197
327 197
328 197
329 197
330 197
331 197
332 197
333 197
334 197
335 197
336 197
337 197
338 197
339 197
340 197
341 197
342 197
343 197
344 197
345 197
302 198
303 198
304 198
305 198
306 198
307 198
308 198
309 198
310 198
311 198
312 198
313 198
314 198
315 198
316 198
317 198
318 198
319 198
320 198
321 198
322 198
323 198
324 198
325 198
326 198
327 198
328 198
329 198
330 198
331 198
332 198
333 198
334 198
335 198
336 198
337 198
338 198
339 198
340 198
341 198
342 198
343 198
344 198
345 198
302 199
303 199
304 199
305 199
306 199
307 199
308 199
309 199
310 199
311 199
312 199
313 199
314 199
315 199
316 199
317 199
318 199
319 199
320 199
321 199
322 199
323 199
324 199
325 199
326 199
327 199
328 199
329 199
330 199
331 199
332 199
333 199
334 199
335 199
336 199
337 199
338 199
339 199
340 199
341 199
342 199
343 199
344 199
345 199
302 200
303 200
304 200
305 200
306 200
307 200
308 200
309 200
310 200
311 200
312 200
313 200
314 200
315 200
316 200
317 200
318 200
319 200
320 200
321 200
322 200
323 200
324 200
325 200
326 200
327 200
328 200
329 200
330 200
331 200
332 200
333 200
334 200
335 200
336 200
337 200
338 200
339 200
340 200
341 200
342 200
343 200
344 200
345 200
302 201
303 201
304 201
305 201
306 201
307 201
308 201
309 201
310 201
311 201
312 201
313 201
314 201
315 201
316 201
317 201
318 201
319 201
320 201
321 201
322 201
323 201
324 201
325 201
326 201
327 201
328 201
329 201
330 201
331 201
332 201
333 201
334 201
335 201
336 201
337 201
338 201
339 201
340 201
341 201
342 201
343 201
344 201
345 201
302 202
303 202
304 202
305 202
306 202
307 202
308 202
309 202
310 202
311 202
312 202
313 202
314 202
315 202
316 202
317 202
318 202
319 202
320 202
321 202
322 202
323 202
324 202
325 202
326 202
327 202
328 202
329 202
330 202
331 202
332 202
333 202
334 202
335 202
336 202
337 202
338 202
339 202
340 202
341 202
342 202
343 202
344 202
345 202
302 203
303 203
304 203
305 203
306 203
307 203
308 203
309 203
310 203
311 203
312 203
313 203
314 203
315 203
316 203
317 203
318 203
319 203
320 203
321 203
322 203
323 203
324 203
325 203
326 203
327 203
328 203
329 203
330 203
331 203
332 203
333 203
334 203
335 203
336 203
337 203
338 203
339 203
340 203
341 203
342 203
343 203
344 203
345 203
302 204
303 204
304 204
305 204
306 204
307 204
308 204
309 204
310 204
311 204
312 204
313 204
314 204
315 204
316 204
317 204
318 204
319 204
320 204
321 204
322 204
323 204
324 204
325 204
326 204
327 204
328 204
329 204
330 204
331 204
332 204
333 204
334 204
335 204
336 204
337 204
338 204
339 204
340 204
341 204
342 204
343 204
344 204
345 204
302 205
303 205
304 205
305 205
306 205
307 205
308 205
309 205
310 205
311 205
312 205
313 205
314 205
315 205
316 205
317 205
318 205
319 205
320 205
321 205
322 205
323 205
324 205
325 205
326 205
327 205
328 205
329 205
330 205
331 205
332 205
333 205
334 205
335 205
336 205
337 205
338 205
339 205
340 205
341 205
342 205
343 205
344 205
345 205
302 206
303 206
304 206
305 206
306 206
307 206
308 206
309 206
310 206
311 206
312 206
313 206
314 206
315 206
316 206
317 206
318 206
319 206
320 206
321 206
322 206
323 206
324 206
325 206
326 206
327 206
328 206
329 206
330 206
331 206
332 206
333 206
334 206
335 206
336 206
337 206
338 206
339 206
340 206
341 206
342 206
343 206
344 206
345 206
302 207
303 207
304 207
305 207
306 207
307 207
308 207
309 207
310 207
311 207
312 207
313 207
314 207
315 207
316 207
317 207
318 207
319 207
320 207
321 207
322 207
323 207
324 207
325 207
326 207
327 207
328 207
329 207
330 207
331 207
332 207
333 207
334 207
335 207
336 207
337 207
338 207
339 207
340 207
341 207
342 207
343 207
344 207
345 207
302 208
303 208
304 208
305 208
306 208
307 208
308 208
309 208
310 208
311 208
312 208
313 208
314 208
315 208
316 208
317 208
318 208
319 208
320 208
321 208
322 208
323 208
324 208
325 208
326 208
327 208
328 208
329 208
330 208
331 208
332 208
333 208
334 208
335 208
336 208
337 208
338 208
339 208
340 208
341 208
342 208
343 208
344 208
345 208
302 209
303 209
304 209
305 209
306 209
307 209
308 209
309 209
310 209
311 209
312 209
313 209
314 209
315 209
316 209
317 209
318 209
319 209
320 209
321 209
322 209
323 209
324 209
325 209
326 209
327 209
328 209
329 209
330 209
331 209
332 209
333 209
334 209
335 209
336 209
337 209
338 209
339 209
340 209
341 209
342 209
343 209
344 209
345 209
302 210
303 210
304 210
305 210
306 210
307 210
308 210
309 210
310 210
311 210
312 210
313 210
314 210
315 210
316 210
317 210
318 210
319 210
320 210
321 210
322 210
323 210
324 210
325 210
326 210
327 210
328 210
329 210
330 210
331 210
332 210
333 210
334 210
335 210
336 210
337 210
338 210
339 210
340 210
341 210
342 210
343 210
344 210
345 210
302 211
303 211
304 211
305 211
306 211
307 211
308 211
309 211
310 211
311 211
312 211
313 211
314 211
315 211
316 211
317 211
318 211
319 211
320 211
321 211
322 211
323 211
324 211
325 211
326 211
327 211
328 211
329 211
330 211
331 211
332 211
333 211
334 211
335 211
336 211
337 211
338 211
339 211
340 211
341 211
342 211
343 211
344 211
345 211
302 212
303 212
304 212
305 212
306 212
307 212
308 212
309 212
310 212
311 212
312 212
313 212
314 212
315 212
316 212
317 212
318 212
319 212
320 212
321 212
322 212
323 212
324 212
325 212
326 212
327 212
328 212
329 212
330 212
331 212
332 212
333 212
334 212
335 212
336 212
337 212
338 212
339 212
340 212
341 212
342 212
343 212
344 212
345 212
302 213
303 213
304 213
305 213
306 213
307 213
308 213
309 213
310 213
311 213
312 213
313 213
314 213
315 213
316 213
317 213
318 213
319 213
320 213
321 213
322 213
323 213
324 213
325 213
326 213
327 213
328 213
329 213
330 213
331 213
332 213
333 213
334 213
335 213
336 213
337 213
338 213
339 213
340 213
341 213
342 213
343 213
344 213
345 213
302 214
303 214
304 214
305 214
306 214
307 214
308 214
309 214
310 214
311 214
312 214
313 214
314 214
315 214
316 214
317 214
318 214
319 214
320 214
321 214
322 214
323 214
324 214
325 214
326 214
327 214
328 214
329 214
330 214
331 214
332 214
333 214
334 214
335 214
336 214
337 214
338 214
339 214
340 214
341 214
342 214
343 214
344 214
345 214
302 215
303 215
304 215
305 215
306 215
307 215
308 215
309 215
310 215
311 215
312 215
313 215
314 215
315 215
316 215
317 215
318 215
319 215
320 215
321 215
322 215
323 215
324 215
325 215
326 215
327 215
328 215
329 215
330 215
331 215
332 215
333 215
334 215
335 215
336 215
337 215
338 215
339 215
340 215
341 215
342 215
343 215
344 215
345 215
302 216
303 216
304 216
305 216
306 216
307 216
308 216
309 216
310 216
311 216
312 216
313 216
314 216
315 216
316 216
317 216
318 216
319 216
320 216
321 216
322 216
323 216
324 216
325 216
326 216
327 216
328 216
329 216
330 216
331 216
332 216
333 216
334 216
335 216
336 216
337 216
338 216
339 216
340 216
341 216
342 216
343 216
344 216
345 216
302 217
303 217
304 217
305 217
306 217
307 217
308 217
309 217
310 217
311 217
312 217
313 217
314 217
315 217
316 217
317 217
318 217
319 217
320 217
321 217
322 217
323 217
324 217
325 217
326 217
327 217
328 217
329 217
330 217
331 217
332 217
333 217
334 217
335 217
336 217
337 217
338 217
339 217
340 217
341 217
342 217
343 217
344 217
345 217
302 218
303 218
304 218
305 218
306 218
307 218
308 218
309 218
310 218
311 218
312 218
313 218
314 218
315 218
316 218
317 218
318 218
319 218
320 218
321 218
322 218
323 218
324 218
325 218
326 218
327 218
328 218
329 218
330 218
331 218
332 218
333 218
334 218
335 218
336 218
337 218
338 218
339 218
340 218
341 218
342 218
343 218
344 218
345 218
302 219
303 219
304 219
305 219
306 219
307 219
308 219
309 219
310 219
311 219
312 219
313 219
314 219
315 219
316 219
317 219
318 219
319 219
320 219
321 219
322 219
323 219
324 219
325 219
326 219
327 219
328 219
329 219
330 219
331 219
332 219
333 219
334 219
335 219
336 219
337 219
338 219
339 219
340 219
341 219
342 219
343 219
344 219
345 219
302 220
303 220
304 220
305 220
306 220
307 220
308 220
309 220
310 220
311 220
312 220
313 220
314 220
315 220
316 220
317 220
318 220
319 220
320 220
321 220
322 220
323 220
324 220
325 220
326 220
327 220
328 220
329 220
330 220
331 220
332 220
333 220
334 220
335 220
336 220
337 220
338 220
339 220
340 220
341 220
342 220
343 220
344 220
345 220
302 221
303 221
304 221
305 221
306 221
307 221
308 221
309 221
310 221
311 221
312 221
313 221
314 221
315 221
316 221
317 221
318 221
319 221
320 221
321 221
322 221
323 221
324 221
325 221
326 221
327 221
328 221
329 221
330 221
331 221
332 221
333 221
334 221
335 221
336 221
337 221
338 221
339 221
340 221
341 221
342 221
343 221
344 221
345 221
302 222
303 222
304 222
305 222
306 222
307 222
308 222
309 222
310 222
311 222
312 222
313 222
314 222
315 222
316 222
317 222
318 222
319 222
320 222
321 222
322 222
323 222
324 222
325 222
326 222
327 222
328 222
329 222
330 222
331 222
332 222
333 222
334 222
335 222
336 222
337 222
338 222
339 222
340 222
341 222
342 222
343 222
344 222
345 222
302 223
303 223
304 223
305 223
306 223
307 223
308 223
309 223
310 223
311 223
312 223
313 223
314 223
315 223
316 223
317 223
318 223
319 223
320 223
321 223
322 223
323 223
324 223
325 223
326 223
327 223
328 223
329 223
330 223
331 223
332 223
333 223
334 223
335 223
336 223
337 223
338 223
339 223
340 223
341 223
342 223
343 223
344 223
345 223
302 224
303 224
304 224
305 224
306 224
307 224
308 224
309 224
310 224
311 224
312 224
313 224
314 224
315 224
316 224
317 224
318 224
319 224
320 224
321 224
322 224
323 224
324 224
325 224
326 224
327 224
328 224
329 224
330 224
331 224
332 224
333 224
334 224
335 224
336 224
337 224
338 224
339 224
340 224
341 224
342 224
343 224
344 224
345 224
302 225
303 225
304 225
305 225
306 225
307 225
308 225
309 225
310 225
311 225
312 225
313 225
314 225
315 225
316 225
317 225
318 225
319 225
320 225
321 225
322 225
323 225
324 225
325 225
326 225
327 225
328 225
329 225
330 225
331 225
332 225
333 225
334 225
335 225
336 225
337 225
338 225
339 225
340 225
341 225
342 225
343 225
344 225
345 225
302 226
303 226
304 226
305 226
306 226
307 226
308 226
309 226
310 226
311 226
312 226
313 226
314 226
315 226
316 226
317 226
318 226
319 226
320 226
321 226
322 226
323 226
324 226
325 226
326 226
327 226
328 226
329 226
330 226
331 226
332 226
333 226
334 226
335 226
336 226
337 226
338 226
339 226
340 226
341 226
342 226
343 226
344 226
345 226
302 227
303 227
304 227
305 227
306 227
307 227
308 227
309 227
310 227
311 227
312 227
313 227
314 227
315 227
316 227
317 227
318 227
319 227
320 227
321 227
322 227
323 227
324 227
325 227
326 227
327 227
328 227
329 227
330 227
331 227
332 227
333 227
334 227
335 227
336 227
337 227
338 227
339 227
340 227
341 227
342 227
343 227
344 227
345 227
302 228
303 228
304 228
305 228
306 228
307 228
308 228
309 228
310 228
311 228
312 228
313 228
314 228
315 228
316 228
317 228
318 228
319 228
320 228
321 228
322 228
323 228
324 228
325 228
326 228
327 228
328 228
329 228
330 228
331 228
332 228
333 228
334 228
335 228
336 228
337 228
338 228
339 228
340 228
341 228
342 228
343 228
344 228
345 228
302 229
303 229
304 229
305 229
306 229
307 229
308 229
309 229
310 229
311 229
312 229
313 229
314 229
315 229
316 229
317 229
318 229
319 229
320 229
321 229
322 229
323 229
324 229
325 229
326 229
327 229
328 229
329 229
330 229
331 229
332 229
333 229
334 229
335 229
336 229
337 229
338 229
339 229
340 229
341 229
342 229
343 229
344 229
345 229
302 230
303 230
304 230
305 230
306 230
307 230
308 230
309 230
310 230
311 230
312 230
313 230
314 230
315 230
316 230
317 230
318 230
319 230
320 230
321 230
322 230
323 230
324 230
325 230
326 230
327 230
328 230
329 230
330 230
331 230
332 230
333 230
334 230
335 230
336 230
337 230
338 230
339 230
340 230
341 230
342 230
343 230
344 230
345 230
302 231
303 231
304 231
305 231
306 231
307 231
308 231
309 231
310 231
311 231
312 231
313 231
314 231
315 231
316 231
317 231
318 231
319 231
320 231
321 231
322 231
323 231
324 231
325 231
326 231
327 231
328 231
329 231
330 231
331 231
332 231
333 231
334 231
335 231
336 231
337 231
338 231
339 231
340 231
341 231
342 231
343 231
344 231
345 231
302 232
303 232
304 232
305 232
306 232
307 232
308 232
309 232
310 232
311 232
312 232
313 232
314 232
315 232
316 232
317 232
318 232
319 232
320 232
321 232
322 232
323 232
324 232
325 232
326 232
327 232
328 232
329 232
330 232
331 232
332 232
333 232
334 232
335 232
336 232
337 232
338 232
339 232
340 232
341 232
342 232
343 232
344 232
345 232
302 233
303 233
304 233
305 233
306 233
307 233
308 233
309 233
310 233
311 233
312 233
313 233
314 233
315 233
316 233
317 233
318 233
319 233
320 233
321 233
322 233
323 233
324 233
325 233
326 233
327 233
328 233
329 233
330 233
331 233
332 233
333 233
334 233
335 233
336 233
337 233
338 233
339 233
340 233
341 233
342 233
343 233
344 233
345 233
302 234
303 234
304 234
305 234
306 234
307 234
308 234
309 234
310 234
311 234
312 234
313 234
314 234
315 234
316 234
317 234
318 234
319 234
320 234
321 234
322 234
323 234
324 234
325 234
326 234
327 234
328 234
329 234
330 234
331 234
332 234
333 234
334 234
335 234
336 234
337 234
338 234
339 234
340 234
341 234
342 234
343 234
344 234
345 234
302 235
303 235
304 235
305 235
306 235
307 235
308 235
309 235
310 235
311 235
312 235
313 235
314 235
315 235
316 235
317 235
318 235
319 235
320 235
321 235
322 235
323 235
324 235
325 235
326 235
327 235
328 235
329 235
330 235
331 235
332 235
333 235
334 235
335 235
336 235
337 235
338 235
339 235
340 235
341 235
342 235
343 235
344 235
345 235
302 236
303 236
304 236
305 236
306 236
307 236
308 236
309 236
310 236
311 236
312 236
313 236
314 236
315 236
316 236
317 236
318 236
319 236
320 236
321 236
322 236
323 236
324 236
325 236
326 236
327 236
328 236
329 236
330 236
331 236
332 236
333 236
334 236
335 236
336 236
337 236
338 236
339 236
340 236
341 236
342 236
343 236
344 236
345 236
302 237
303 237
304 237
305 237
306 237
307 237
308 237
309 237
310 237
311 237
312 237
313 237
314 237
315 237
316 237
317 237
318 237
319 237
320 237
321 237
322 237
323 237
324 237
325 237
326 237
327 237
328 237
329 237
330 237
331 237
332 237
333 237
334 237
335 237
336 237
337 237
338 237
339 237
340 237
341 237
342 237
343 237
344 237
345 237
302 238
303 238
304 238
305 238
306 238
307 238
308 238
309 238
310 238
311 238
312 238
313 238
314 238
315 238
316 238
317 238
318 238
319 238
320 238
321 238
322 238
323 238
324 238
325 238
326 238
327 238
328 238
329 238
330 238
331 238
332 238
333 238
334 238
335 238
336 238
337 238
338 238
339 238
340 238
341 238
342 238
343 238
344 238
345 238
454 292
455 292
456 292
457 292
458 292
459 292
460 292
461 292
462 292
463 292
464 292
465 292
466 292
467 292
468 292
469 292
470 292
471 292
472 292
473 292
474 292
475 292
476 292
477 292
478 292
479 292
480 292
481 292
482 292
483 292
484 292
485 292
486 292
487 292
488 292
489 292
490 292
491 292
492 292
493 292
494 292
495 292
496 292
497 292
454 293
455 293
456 293
457 293
458 293
459 293
460 293
461 293
462 293
463 293
464 293
465 293
466 293
467 293
468 293
469 293
470 293
471 293
472 293
473 293
474 293
475 293
476 293
477 293
478 293
479 293
480 293
481 293
482 293
483 293
484 293
485 293
486 293
487 293
488 293
489 293
490 293
491 293
492 293
493 293
494 293
495 293
496 293
497 293
454 294
455 294
456 294
457 294
458 294
459 294
460 294
461 294
462 294
463 294
464 294
465 294
466 294
467 294
468 294
469 294
470 294
471 294
472 294
473 294
474 294
475 294
476 294
477 294
478 294
479 294
480 294
481 294
482 294
483 294
484 294
485 294
486 294
487 294
488 294
489 294
490 294
491 294
492 294
493 294
494 294
495 294
496 294
497 294
454 295
455 295
456 295
457 295
458 295
459 295
460 295
461 295
462 295
463 295
464 295
465 295
466 295
467 295
468 295
469 295
470 295
471 295
472 295
473 295
474 295
475 295
476 295
477 295
478 295
479 295
480 295
481 295
482 295
483 295
484 295
485 295
486 295
487 295
488 295
489 295
490 295
491 295
492 295
493 295
494 295
495 295
496 295
497 295
454 296
455 296
456 296
457 296
458 296
459 296
460 296
461 296
462 296
463 296
464 296
465 296
466 296
467 296
468 296
469 296
470 296
471 296
472 296
473 296
474 296
475 296
476 296
477 296
478 296
479 296
480 296
481 296
482 296
483 296
484 296
485 296
486 296
487 296
488 296
489 296
490 296
491 296
492 296
493 296
494 296
495 296
496 296
497 296
454 297
455 297
456 297
457 297
458 297
459 297
460 297
461 297
462 297
463 297
464 297
465 297
466 297
467 297
468 297
469 297
470 297
471 297
472 297
473 297
474 297
475 297
476 297
477 297
478 297
479 297
480 297
481 297
482 297
483 297
484 297
485 297
486 297
487 297
488 297
489 297
490 297
491 297
492 297
493 297
494 297
495 297
496 297
497 297
454 298
455 298
456 298
457 298
458 298
459 298
460 298
461 298
462 298
463 298
464 298
465 298
466 298
467 298
468 298
469 298
470 298
471 298
472 298
473 298
474 298
475 298
476 298
477 298
478 298
479 298
480 298
481 298
482 298
483 298
484 298
485 298
486 298
487 298
488 298
489 298
490 298
491 298
492 298
493 298
494 298
495 298
496 298
497 298
454 299
455 299
456 299
457 299
458 299
459 299
460 299
461 299
462 299
463 299
464 299
465 299
466 299
467 299
468 299
469 299
470 299
471 299
472 299
473 299
474 299
475 299
476 299
477 299
478 299
479 299
480 299
481 299
482 299
483 299
484 299
485 299
486 299
487 299
488 299
489 299
490 299
491 299
492 299
493 299
494 299
495 299
496 299
497 299
454 300
455 300
456 300
457 300
458 300
459 300
460 300
461 300
462 300
463 300
464 300
465 300
466 300
467 300
468 300
469 300
470 300
471 300
472 300
473 300
474 300
475 300
476 300
477 300
478 300
479 300
480 300
481 300
482 300
483 300
484 300
485 300
486 300
487 300
488 300
489 300
490 300
491 300
492 300
493 300
494 300
495 300
496 300
497 300
454 301
455 301
456 301
457 301
458 301
459 301
460 301
461 301
462 301
463 301
464 301
465 301
466 301
467 301
468 301
469 301
470 301
471 301
472 301
473 301
474 301
475 301
476 301
477 301
478 301
479 301
480 301
481 301
482 301
483 301
484 301
485 301
486 301
487 301
488 301
489 301
490 301
491 301
492 301
493 301
494 301
495 301
496 301
497 301
454 302
455 302
456 302
457 302
458 302
459 302
460 302
461 302
462 302
463 302
464 302
465 302
466 302
467 302
468 302
469 302
470 302
471 302
472 302
473 302
474 302
475 302
476 302
477 302
478 302
479 302
480 302
481 302
482 302
483 302
484 302
485 302
486 302
487 302
488 302
489 302
490 302
491 302
492 302
493 302
494 302
495 302
496 302
497 302
454 303
455 303
456 303
457 303
458 303
459 303
460 303
461 303
462 303
463 303
464 303
465 303
466 303
467 303
468 303
469 303
470 303
471 303
472 303
473 303
474 303
475 303
476 303
477 303
478 303
479 303
480 303
481 303
482 303
483 303
484 303
485 303
486 303
487 303
488 303
489 303
490 303
491 303
492 303
493 303
494 303
495 303
496 303
497 303
454 304
455 304
456 304
457 304
458 304
459 304
460 304
461 304
462 304
463 304
464 304
465 304
466 304
467 304
468 304
469 304
470 304
471 304
472 304
473 304
474 304
475 304
476 304
477 304
478 304
479 304
480 304
481 304
482 304
483 304
484 304
485 304
486 304
487 304
488 304
489 304
490 304
491 304
492 304
493 304
494 304
495 304
496 304
497 304
454 305
455 305
456 305
457 305
458 305
459 305
460 305
461 305
462 305
463 305
464 305
465 305
466 305
467 305
468 305
469 305
470 305
471 305
472 305
473 305
474 305
475 305
476 305
477 305
478 305
479 305
480 305
481 305
482 305
483 305
484 305
485 305
486 305
487 305
488 305
489 305
490 305
491 305
492 305
493 305
494 305
495 305
496 305
497 305
454 306
455 306
456 306
457 306
458 306
459 306
460 306
461 306
462 306
463 306
464 306
465 306
466 306
467 306
468 306
469 306
470 306
471 306
472 306
473 306
474 306
475 306
476 306
477 306
478 306
479 306
480 306
481 306
482 306
483 306
484 306
485 306
486 306
487 306
488 306
489 306
490 306
491 306
492 306
493 306
494 306
495 306
496 306
497 306
454 307
455 307
456 307
457 307
458 307
459 307
460 307
461 307
462 307
463 307
464 307
465 307
466 307
467 307
468 307
469 307
470 307
471 307
472 307
473 307
474 307
475 307
476 307
477 307
478 307
479 307
480 307
481 307
482 307
483 307
484 307
485 307
486 307
487 307
488 307
489 307
490 307
491 307
492 307
493 307
494 307
495 307
496 307
497 307
454 308
455 308
456 308
457 308
458 308
459 308
460 308
461 308
462 308
463 308
464 308
465 308
466 308
467 308
468 308
469 308
470 308
471 308
472 308
473 308
474 308
475 308
476 308
477 308
478 308
479 308
480 308
481 308
482 308
483 308
484 308
485 308
486 308
487 308
488 308
489 308
490 308
491 308
492 308
493 308
494 308
495 308
496 308
497 308
454 309
455 309
456 309
457 309
458 309
459 309
460 309
461 309
462 309
463 309
464 309
465 309
466 309
467 309
468 309
469 309
470 309
471 309
472 309
473 309
474 309
475 309
476 309
477 309
478 309
479 309
480 309
481 309
482 309
483 309
484 309
485 309
486 309
487 309
488 309
489 309
490 309
491 309
492 309
493 309
494 309
495 309
496 309
497 309
454 310
455 310
456 310
457 310
458 310
459 310
460 310
461 310
462 310
463 310
464 310
465 310
466 310
467 310
468 310
469 310
470 310
471 310
472 310
473 310
474 310
475 310
476 310
477 310
478 310
479 310
480 310
481 310
482 310
483 310
484 310
485 310
486 310
487 310
488 310
489 310
490 310
491 310
492 310
493 310
494 310
495 310
496 310
497 310
454 311
455 311
456 311
457 311
458 311
459 311
460 311
461 311
462 311
463 311
464 311
465 311
466 311
467 311
468 311
469 311
470 311
471 311
472 311
473 311
474 311
475 311
476 311
477 311
478 311
479 311
480 311
481 311
482 311
483 311
484 311
485 311
486 311
487 311
488 311
489 311
490 311
491 311
492 311
493 311
494 311
495 311
496 311
497 311
454 312
455 312
456 312
457 312
458 312
459 312
460 312
461 312
462 312
463 312
464 312
465 312
466 312
467 312
468 312
469 312
470 312
471 312
472 312
473 312
474 312
475 312
476 312
477 312
478 312
479 312
480 312
481 312
482 312
483 312
484 312
485 312
486 312
487 312
488 312
489 312
490 312
491 312
492 312
493 312
494 312
495 312
496 312
497 312
454 313
455 313
456 313
457 313
458 313
459 313
460 313
461 313
462 313
463 313
464 313
465 313
466 313
467 313
468 313
469 313
470 313
471 313
472 313
473 313
474 313
475 313
476 313
477 313
478 313
479 313
480 313
481 313
482 313
483 313
484 313
485 313
486 313
487 313
488 313
489 313
490 313
491 313
492 313
493 313
494 313
495 313
496 313
497 313
454 314
455 314
456 314
457 314
458 314
459 314
460 314
461 314
462 314
463 314
464 314
465 314
466 314
467 314
468 314
469 314
470 314
471 314
472 314
473 314
474 314
475 314
476 314
477 314
478 314
479 314
480 314
481 314
482 314
483 314
484 314
485 314
486 314
487 314
488 314
489 314
490 314
491 314
492 314
493 314
494 314
495 314
496 314
497 314
454 315
455 315
456 315
457 315
458 315
459 315
460 315
461 315
462 315
463 315
464 315
465 315
466 315
467 315
468 315
469 315
470 315
471 315
472 315
473 315
474 315
475 315
476 315
477 315
478 315
479 315
480 315
481 315
482 315
483 315
484 315
485 315
486 315
487 315
488 315
489 315
490 315
491 315
492 315
493 315
494 315
495 315
496 315
497 315
454 316
455 316
456 316
457 316
458 316
459 316
460 316
461 316
462 316
463 316
464 316
465 316
466 316
467 316
468 316
469 316
470 316
471 316
472 316
473 316
474 316
475 316
476 316
477 316
478 316
479 316
480 316
481 316
482 316
483 316
484 316
485 316
486 316
487 316
488 316
489 316
490 316
491 316
492 316
493 316
494 316
495 316
496 316
497 316
454 317
455 317
456 317
457 317
458 317
459 317
460 317
461 317
462 317
463 317
464 317
465 317
466 317
467 317
468 317
469 317
470 317
471 317
472 317
473 317
474 317
475 317
476 317
477 317
478 317
479 317
480 317
481 317
482 317
483 317
484 317
485 317
486 317
487 317
488 317
489 317
490 317
491 317
492 317
493 317
494 317
495 317
496 317
497 317
454 318
455 318
456 318
457 318
458 318
459 318
460 318
461 318
462 318
463 318
464 318
465 318
466 318
467 318
468 318
469 318
470 318
471 318
472 318
473 318
474 318
475 318
476 318
477 318
478 318
479 318
480 318
481 318
482 318
483 318
484 318
485 318
486 318
487 318
488 318
489 318
490 318
491 318
492 318
493 318
494 318
495 318
496 318
497 318
454 319
455 319
456 319
457 319
458 319
459 319
460 319
461 319
462 319
463 319
464 319
465 319
466 319
467 319
468 319
469 319
470 319
471 319
472 319
473 319
474 319
475 319
476 319
477 319
478 319
479 319
480 319
481 319
482 319
483 319
484 319
485 319
486 319
487 319
488 319
489 319
490 319
491 319
492 319
493 319
494 319
495 319
496 319
497 319
454 320
455 320
456 320
457 320
458 320
459 320
460 320
461 320
462 320
463 320
464 320
465 320
466 320
467 320
468 320
469 320
470 320
471 320
472 320
473 320
474 320
475 320
476 320
477 320
478 320
479 320
480 320
481 320
482 320
483 320
484 320
485 320
486 320
487 320
488 320
489 320
490 320
491 320
492 320
493 320
494 320
495 320
496 320
497 320
454 321
455 321
456 321
457 321
458 321
459 321
460 321
461 321
462 321
463 321
464 321
465 321
466 321
467 321
468 321
469 321
470 321
471 321
472 321
473 321
474 321
475 321
476 321
477 321
478 321
479 321
480 321
481 321
482 321
483 321
484 321
485 321
486 321
487 321
488 321
489 321
490 321
491 321
492 321
493 321
494 321
495 321
496 321
497 321
454 322
455 322
456 322
457 322
458 322
459 322
460 322
461 322
462 322
463 322
464 322
465 322
466 322
467 322
468 322
469 322
470 322
471 322
472 322
473 322
474 322
475 322
476 322
477 322
478 322
479 322
480 322
481 322
482 322
483 322
484 322
485 322
486 322
487 322
488 322
489 322
490 322
491 322
492 322
493 322
494 322
495 322
496 322
497 322
454 323
455 323
456 323
457 323
458 323
459 323
460 323
461 323
462 323
463 323
464 323
465 323
466 323
467 323
468 323
469 323
470 323
471 323
472 323
473 323
474 323
475 323
476 323
477 323
478 323
479 323
480 323
481 323
482 323
483 323
484 323
485 323
486 323
487 323
488 323
489 323
490 323
491 323
492 323
493 323
494 323
495 323
496 323
497 323
454 324
455 324
456 324
457 324
458 324
459 324
460 324
461 324
462 324
463 324
464 324
465 324
466 324
467 324
468 324
469 324
470 324
471 324
472 324
473 324
474 324
475 324
476 324
477 324
478 324
479 324
480 324
481 324
482 324
483 324
484 324
485 324
486 324
487 324
488 324
489 324
490 324
491 324
492 324
493 324
494 324
495 324
496 324
497 324
454 325
455 325
456 325
457 325
458 325
459 325
460 325
461 325
462 325
463 325
464 325
465 325
466 325
467 325
468 325
469 325
470 325
471 325
472 325
473 325
474 325
475 325
476 325
477 325
478 325
479 325
480 325
481 325
482 325
483 325
484 325
485 325
486 325
487 325
488 325
489 325
490 325
491 325
492 325
493 325
494 325
495 325
496 325
497 325
454 326
455 326
456 326
457 326
458 326
459 326
460 326
461 326
462 326
463 326
464 326
465 326
466 326
467 326
468 326
469 326
470 326
471 326
472 326
473 326
474 326
475 326
476 326
477 326
478 326
479 326
480 326
481 326
482 326
483 326
484 326
485 326
486 326
487 326
488 326
489 326
490 326
491 326
492 326
493 326
494 326
495 326
496 326
497 326
454 327
455 327
456 327
457 327
458 327
459 327
460 327
461 327
462 327
463 327
464 327
465 327
466 327
467 327
468 327
469 327
470 327
471 327
472 327
473 327
474 327
475 327
476 327
477 327
478 327
479 327
480 327
481 327
482 327
483 327
484 327
485 327
486 327
487 327
488 327
489 327
490 327
491 327
492 327
493 327
494 327
495 327
496 327
497 327
454 328
455 328
456 328
457 328
458 328
459 328
460 328
461 328
462 328
463 328
464 328
465 328
466 328
467 328
468 328
469 328
470 328
471 328
472 328
473 328
474 328
475 328
476 328
477 328
478 328
479 328
480 328
481 328
482 328
483 328
484 328
485 328
486 328
487 328
488 328
489 328
490 328
491 328
492 328
493 328
494 328
495 328
496 328
497 328
454 329
455 329
456 329
457 329
458 329
459 329
460 329
461 329
462 329
463 329
464 329
465 329
466 329
467 329
468 329
469 329
470 329
471 329
472 329
473 329
474 329
475 329
476 329
477 329
478 329
479 329
480 329
481 329
482 329
483 329
484 329
485 329
486 329
487 329
488 329
489 329
490 329
491 329
492 329
493 329
494 329
495 329
496 329
497 329
454 330
455 330
456 330
457 330
458 330
459 330
460 330
461 330
462 330
463 330
464 330
465 330
466 330
467 330
468 330
469 330
470 330
471 330
472 330
473 330
474 330
475 330
476 330
477 330
478 330
479 330
480 330
481 330
482 330
483 330
484 330
485 330
486 330
487 330
488 330
489 330
490 330
491 330
492 330
493 330
494 330
495 330
496 330
497 330
454 331
455 331
456 331
457 331
458 331
459 331
460 331
461 331
462 331
463 331
464 331
465 331
466 331
467 331
468 331
469 331
470 331
471 331
472 331
473 331
474 331
475 331
476 331
477 331
478 331
479 331
480 331
481 331
482 331
483 331
484 331
485 331
486 331
487 331
488 331
489 331
490 331
491 331
492 331
493 331
494 331
495 331
496 331
497 331
454 332
455 332
456 332
457 332
458 332
459 332
460 332
461 332
462 332
463 332
464 332
465 332
466 332
467 332
468 332
469 332
470 332
471 332
472 332
473 332
474 332
475 332
476 332
477 332
478 332
479 332
480 332
481 332
482 332
483 332
484 332
485 332
486 332
487 332
488 332
489 332
490 332
491 332
492 332
493 332
494 332
495 332
496 332
497 332
454 333
455 333
456 333
457 333
458 333
459 333
460 333
461 333
462 333
463 333
464 333
465 333
466 333
467 333
468 333
469 333
470 333
471 333
472 333
473 333
474 333
475 333
476 333
477 333
478 333
479 333
480 333
481 333
482 333
483 333
484 333
485 333
486 333
487 333
488 333
489 333
490 333
491 333
492 333
493 333
494 333
495 333
496 333
497 333
454 334
455 334
456 334
457 334
458 334
459 334
460 334
461 334
462 334
463 334
464 334
465 334
466 334
467 334
468 334
469 334
470 334
471 334
472 334
473 334
474 334
475 334
476 334
477 334
478 334
479 334
480 334
481 334
482 334
483 334
484 334
485 334
486 334
487 334
488 334
489 334
490 334
491 334
492 334
493 334
494 334
495 334
496 334
497 334
454 335
455 335
456 335
457 335
458 335
459 335
460 335
461 335
462 335
463 335
464 335
465 335
466 335
467 335
468 335
469 335
470 335
471 335
472 335
473 335
474 335
475 335
476 335
477 335
478 335
479 335
480 335
481 335
482 335
483 335
484 335
485 335
486 335
487 335
488 335
489 335
490 335
491 335
492 335
493 335
494 335
495 335
496 335
497 335
574 373
575 373
576 373
577 373
578 373
579 373
580 373
581 373
582 373
583 373
584 373
585 373
586 373
587 373
588 373
589 373
590 373
591 373
592 373
593 373
594 373
595 373
596 373
597 373
598 373
599 373
600 373
601 373
602 373
603 373
604 373
605 373
606 373
607 373
608 373
609 373
610 373
611 373
612 373
613 373
614 373
615 373
616 373
617 373
574 374
575 374
576 374
577 374
578 374
579 374
580 374
581 374
582 374
583 374
584 374
585 374
586 374
587 374
588 374
589 374
590 374
591 374
592 374
593 374
594 374
595 374
596 374
597 374
598 374
599 374
600 374
601 374
602 374
603 374
604 374
605 374
606 374
607 374
608 374
609 374
610 374
611 374
612 374
613 374
614 374
615 374
616 374
617 374
574 375
575 375
576 375
577 375
578 375
579 375
580 375
581 375
582 375
583 375
584 375
585 375
586 375
587 375
588 375
589 375
590 375
591 375
592 375
593 375
594 375
595 375
596 375
597 375
598 375
599 375
600 375
601 375
602 375
603 375
604 375
605 375
606 375
607 375
608 375
609 375
610 375
611 375
612 375
613 375
614 375
615 375
616 375
617 375
574 376
575 376
576 376
577 376
578 376
579 376
580 376
581 376
582 376
583 376
584 376
585 376
586 376
587 376
588 376
589 376
590 376
591 376
592 376
593 376
594 376
595 376
596 376
597 376
598 376
599 376
600 376
601 376
602 376
603 376
604 376
605 376
606 376
607 376
608 376
609 376
610 376
611 376
612 376
613 376
614 376
615 376
616 376
617 376
574 377
575 377
576 377
577 377
578 377
579 377
580 377
581 377
582 377
583 377
584 377
585 377
586 377
587 377
588 377
589 377
590 377
591 377
592 377
593 377
594 377
595 377
596 377
597 377
598 377
599 377
600 377
601 377
602 377
603 377
604 377
605 377
606 377
607 377
608 377
609 377
610 377
611 377
612 377
613 377
614 377
615 377
616 377
617 377
574 378
575 378
576 378
577 378
578 378
579 378
580 378
581 378
582 378
583 378
584 378
585 378
586 378
587 378
588 378
589 378
590 378
591 378
592 378
593 378
594 378
595 378
596 378
597 378
598 378
599 378
600 378
601 378
602 378
603 378
604 378
605 378
606 378
607 378
608 378
609 378
610 378
611 378
612 378
613 378
614 378
615 378
616 378
617 378
574 379
575 379
576 379
577 379
578 379
579 379
580 379
581 379
582 379
583 379
584 379
585 379
586 379
587 379
588 379
589 379
590 379
591 379
592 379
593 379
594 379
595 379
596 379
597 379
598 379
599 379
600 379
601 379
602 379
603 379
604 379
605 379
606 379
607 379
608 379
609 379
610 379
611 379
612 379
613 379
614 379
615 379
616 379
617 379
574 380
575 380
576 380
577 380
578 380
579 380
580 380
581 380
582 380
583 380
584 380
585 380
586 380
587 380
588 380
589 380
590 380
591 380
592 380
593 380
594 380
595 380
596 380
597 380
598 380
599 380
600 380
601 380
602 380
603 380
604 380
605 380
606 380
607 380
608 380
609 380
610 380
611 380
612 380
613 380
614 380
615 380
616 380
617 380
574 381
575 381
576 381
577 381
578 381
579 381
580 381
581 381
582 381
583 381
584 381
585 381
586 381
587 381
588 381
589 381
590 381
591 381
592 381
593 381
594 381
595 381
596 381
597 381
598 381
599 381
600 381
601 381
602 381
603 381
604 381
605 381
606 381
607 381
608 381
609 381
610 381
611 381
612 381
613 381
614 381
615 381
616 381
617 381
574 382
575 382
576 382
577 382
578 382
579 382
580 382
581 382
582 382
583 382
584 382
585 382
586 382
587 382
588 382
589 382
590 382
591 382
592 382
593 382
594 382
595 382
596 382
597 382
598 382
599 382
600 382
601 382
602 382
603 382
604 382
605 382
606 382
607 382
608 382
609 382
610 382
611 382
612 382
613 382
614 382
615 382
616 382
617 382
574 383
575 383
576 383
577 383
578 383
579 383
580 383
581 383
582 383
583 383
584 383
585 383
586 383
587 383
588 383
589 383
590 383
591 383
592 383
593 383
594 383
595 383
596 383
597 383
598 383
599 383
600 383
601 383
602 383
603 383
604 383
605 383
606 383
607 383
608 383
609 383
610 383
611 383
612 383
613 383
614 383
615 383
616 383
617 383
574 384
575 384
576 384
577 384
578 384
579 384
580 384
581 384
582 384
583 384
584 384
585 384
586 384
587 384
588 384
589 384
590 384
591 384
592 384
593 384
594 384
595 384
596 384
597 384
598 384
599 384
600 384
601 384
602 384
603 384
604 384
605 384
606 384
607 384
608 384
609 384
610 384
611 384
612 384
613 384
614 384
615 384
616 384
617 384
574 385
575 385
576 385
577 385
578 385
579 385
580 385
581 385
582 385
583 385
584 385
585 385
586 385
587 385
588 385
589 385
590 385
591 385
592 385
593 385
594 385
595 385
596 385
597 385
598 385
599 385
600 385
601 385
602 385
603 385
604 385
605 385
606 385
607 385
608 385
609 385
610 385
611 385
612 385
613 385
614 385
615 385
616 385
617 385
574 386
575 386
576 386
577 386
578 386
579 386
580 386
581 386
582 386
583 386
584 386
585 386
586 386
587 386
588 386
589 386
590 386
591 386
592 386
593 386
594 386
595 386
596 386
597 386
598 386
599 386
600 386
601 386
602 386
603 386
604 386
605 386
606 386
607 386
608 386
609 386
610 386
611 386
612 386
613 386
614 386
615 386
616 386
617 386
574 387
575 387
576 387
577 387
578 387
579 387
580 387
581 387
582 387
583 387
584 387
585 387
586 387
587 387
588 387
589 387
590 387
591 387
592 387
593 387
594 387
595 387
596 387
597 387
598 387
599 387
600 387
601 387
602 387
603 387
604 387
605 387
606 387
607 387
608 387
609 387
610 387
611 387
612 387
613 387
614 387
615 387
616 387
617 387
574 388
575 388
576 388
577 388
578 388
579 388
580 388
581 388
582 388
583 388
584 388
585 388
586 388
587 388
588 388
589 388
590 388
591 388
592 388
593 388
594 388
595 388
596 388
597 388
598 388
599 388
600 388
601 388
602 388
603 388
604 388
605 388
606 388
607 388
608 388
609 388
610 388
611 388
612 388
613 388
614 388
615 388
616 388
617 388
574 389
575 389
576 389
577 389
578 389
579 389
580 389
581 389
582 389
583 389
584 389
585 389
586 389
587 389
588 389
589 389
590 389
591 389
592 389
593 389
594 389
595 389
596 389
597 389
598 389
599 389
600 389
601 389
602 389
603 389
604 389
605 389
606 389
607 389
608 389
609 389
610 389
611 389
612 389
613 389
614 389
615 389
616 389
617 389
574 390
575 390
576 390
577 390
578 390
579 390
580 390
581 390
582 390
583 390
584 390
585 390
586 390
587 390
588 390
589 390
590 390
591 390
592 390
593 390
594 390
595 390
596 390
597 390
598 390
599 390
600 390
601 390
602 390
603 390
604 390
605 390
606 390
607 390
608 390
609 390
610 390
611 390
612 390
613 390
614 390
615 390
616 390
617 390
574 391
575 391
576 391
577 391
578 391
579 391
580 391
581 391
582 391
583 391
584 391
585 391
586 391
587 391
588 391
589 391
590 391
591 391
592 391
593 391
594 391
595 391
596 391
597 391
598 391
599 391
600 391
601 391
602 391
603 391
604 391
605 391
606 391
607 391
608 391
609 391
610 391
611 391
612 391
613 391
614 391
615 391
616 391
617 391
574 392
575 392
576 392
577 392
578 392
579 392
580 392
581 392
582 392
583 392
584 392
585 392
586 392
587 392
588 392
589 392
590 392
591 392
592 392
593 392
594 392
595 392
596 392
597 392
598 392
599 392
600 392
601 392
602 392
603 392
604 392
605 392
606 392
607 392
608 392
609 392
610 392
611 392
612 392
613 392
614 392
615 392
616 392
617 392
574 393
575 393
576 393
577 393
578 393
579 393
580 393
581 393
582 393
583 393
584 393
585 393
586 393
587 393
588 393
589 393
590 393
591 393
592 393
593 393
594 393
595 393
596 393
597 393
598 393
599 393
600 393
601 393
602 393
603 393
604 393
605 393
606 393
607 393
608 393
609 393
610 393
611 393
612 393
613 393
614 393
615 393
616 393
617 393
574 394
575 394
576 394
577 394
578 394
579 394
580 394
581 394
582 394
583 394
584 394
585 394
586 394
587 394
588 394
589 394
590 394
591 394
592 394
593 394
594 394
595 394
596 394
597 394
598 394
599 394
600 394
601 394
602 394
603 394
604 394
605 394
606 394
607 394
608 394
609 394
610 394
611 394
612 394
613 394
614 394
615 394
616 394
617 394
574 395
575 395
576 395
577 395
578 395
579 395
580 395
581 395
582 395
583 395
584 395
585 395
586 395
587 395
588 395
589 395
590 395
591 395
592 395
593 395
594 395
595 395
596 395
597 395
598 395
599 395
600 395
601 395
602 395
603 395
604 395
605 395
606 395
607 395
608 395
609 395
610 395
611 395
612 395
613 395
614 395
615 395
616 395
617 395
574 396
575 396
576 396
577 396
578 396
579 396
580 396
581 396
582 396
583 396
584 396
585 396
586 396
587 396
588 396
589 396
590 396
591 396
592 396
593 396
594 396
595 396
596 396
597 396
598 396
599 396
600 396
601 396
602 396
603 396
604 396
605 396
606 396
607 396
608 396
609 396
610 396
611 396
612 396
613 396
614 396
615 396
616 396
617 396
574 397
575 397
576 397
577 397
578 397
579 397
580 397
581 397
582 397
583 397
584 397
585 397
586 397
587 397
588 397
589 397
590 397
591 397
592 397
593 397
594 397
595 397
596 397
597 397
598 397
599 397
600 397
601 397
602 397
603 397
604 397
605 397
606 397
607 397
608 397
609 397
610 397
611 397
612 397
613 397
614 397
615 397
616 397
617 397
574 398
575 398
576 398
577 398
578 398
579 398
580 398
581 398
582 398
583 398
584 398
585 398
586 398
587 398
588 398
589 398
590 398
591 398
592 398
593 398
594 398
595 398
596 398
597 398
598 398
599 398
600 398
601 398
602 398
603 398
604 398
605 398
606 398
607 398
608 398
609 398
610 398
611 398
612 398
613 398
614 398
615 398
616 398
617 398
574 399
575 399
576 399
577 399
578 399
579 399
580 399
581 399
582 399
583 399
584 399
585 399
586 399
587 399
588 399
589 399
590 399
591 399
592 399
593 399
594 399
595 399
596 399
597 399
598 399
599 399
600 399
601 399
602 399
603 399
604 399
605 399
606 399
607 399
608 399
609 399
610 399
611 399
612 399
613 399
614 399
615 399
616 399
617 399
574 400
575 400
576 400
577 400
578 400
579 400
580 400
581 400
582 400
583 400
584 400
585 400
586 400
587 400
588 400
589 400
590 400
591 400
592 400
593 400
594 400
595 400
596 400
597 400
598 400
599 400
600 400
601 400
602 400
603 400
604 400
605 400
606 400
607 400
608 400
609 400
610 400
611 400
612 400
613 400
614 400
615 400
616 400
617 400
574 401
575 401
576 401
577 401
578 401
579 401
580 401
581 401
582 401
583 401
584 401
585 401
586 401
587 401
588 401
589 401
590 401
591 401
592 401
593 401
594 401
595 401
596 401
597 401
598 401
599 401
600 401
601 401
602 401
603 401
604 401
605 401
606 401
607 401
608 401
609 401
610 401
611 401
612 401
613 401
614 401
615 401
616 401
617 401
574 402
575 402
576 402
577 402
578 402
579 402
580 402
581 402
582 402
583 402
584 402
585 402
586 402
587 402
588 402
589 402
590 402
591 402
592 402
593 402
594 402
595 402
596 402
597 402
598 402
599 402
600 402
601 402
602 402
603 402
604 402
605 402
606 402
607 402
608 402
609 402
610 402
611 402
612 402
613 402
614 402
615 402
616 402
617 402
574 403
575 403
576 403
577 403
578 403
579 403
580 403
581 403
582 403
583 403
584 403
585 403
586 403
587 403
588 403
589 403
590 403
591 403
592 403
593 403
594 403
595 403
596 403
597 403
598 403
599 403
600 403
601 403
602 403
603 403
604 403
605 403
606 403
607 403
608 403
609 403
610 403
611 403
612 403
613 403
614 403
615 403
616 403
617 403
574 404
575 404
576 404
577 404
578 404
579 404
580 404
581 404
582 404
583 404
584 404
585 404
586 404
587 404
588 404
589 404
590 404
591 404
592 404
593 404
594 404
595 404
596 404
597 404
598 404
599 404
600 404
601 404
602 404
603 404
604 404
605 404
606 404
607 404
608 404
609 404
610 404
611 404
612 404
613 404
614 404
615 404
616 404
617 404
574 405
575 405
576 405
577 405
578 405
579 405
580 405
581 405
582 405
583 405
584 405
585 405
586 405
587 405
588 405
589 405
590 405
591 405
592 405
593 405
594 405
595 405
596 405
597 405
598 405
599 405
600 405
601 405
602 405
603 405
604 405
605 405
606 405
607 405
608 405
609 405
610 405
611 405
612 405
613 405
614 405
615 405
616 405
617 405
574 406
575 406
576 406
577 406
578 406
579 406
580 406
581 406
582 406
583 406
584 406
585 406
586 406
587 406
588 406
589 406
590 406
591 406
592 406
593 406
594 406
595 406
596 406
597 406
598 406
599 406
600 406
601 406
602 406
603 406
604 406
605 406
606 406
607 406
608 406
609 406
610 406
611 406
612 406
613 406
614 406
615 406
616 406
617 406
574 407
575 407
576 407
577 407
578 407
579 407
580 407
581 407
582 407
583 407
584 407
585 407
586 407
587 407
588 407
589 407
590 407
591 407
592 407
593 407
594 407
595 407
596 407
597 407
598 407
599 407
600 407
601 407
602 407
603 407
604 407
605 407
606 407
607 407
608 407
609 407
610 407
611 407
612 407
613 407
614 407
615 407
616 407
617 407
574 408
575 408
576 408
577 408
578 408
579 408
580 408
581 408
582 408
583 408
584 408
585 408
586 408
587 408
588 408
589 408
590 408
591 408
592 408
593 408
594 408
595 408
596 408
597 408
598 408
599 408
600 408
601 408
602 408
603 408
604 408
605 408
606 408
607 408
608 408
609 408
610 408
611 408
612 408
613 408
614 408
615 408
616 408
617 408
574 409
575 409
576 409
577 409
578 409
579 409
580 409
581 409
582 409
583 409
584 409
585 409
586 409
587 409
588 409
589 409
590 409
591 409
592 409
593 409
594 409
595 409
596 409
597 409
598 409
599 409
600 409
601 409
602 409
603 409
604 409
605 409
606 409
607 409
608 409
609 409
610 409
611 409
612 409
613 409
614 409
615 409
616 409
617 409
574 410
575 410
576 410
577 410
578 410
579 410
580 410
581 410
582 410
583 410
584 410
585 410
586 410
587 410
588 410
589 410
590 410
591 410
592 410
593 410
594 410
595 410
596 410
597 410
598 410
599 410
600 410
601 410
602 410
603 410
604 410
605 410
606 410
607 410
608 410
609 410
610 410
611 410
612 410
613 410
614 410
615 410
616 410
617 410
574 411
575 411
576 411
577 411
578 411
579 411
580 411
581 411
582 411
583 411
584 411
585 411
586 411
587 411
588 411
589 411
590 411
591 411
592 411
593 411
594 411
595 411
596 411
597 411
598 411
599 411
600 411
601 411
602 411
603 411
604 411
605 411
606 411
607 411
608 411
609 411
610 411
611 411
612 411
613 411
614 411
615 411
616 411
617 411
574 412
575 412
576 412
577 412
578 412
579 412
580 412
581 412
582 412
583 412
584 412
585 412
586 412
587 412
588 412
589 412
590 412
591 412
592 412
593 412
594 412
595 412
596 412
597 412
598 412
599 412
600 412
601 412
602 412
603 412
604 412
605 412
606 412
607 412
608 412
609 412
610 412
611 412
612 412
613 412
614 412
615 412
616 412
617 412
574 413
575 413
576 413
577 413
578 413
579 413
580 413
581 413
582 413
583 413
584 413
585 413
586 413
587 413
588 413
589 413
590 413
591 413
592 413
593 413
594 413
595 413
596 413
597 413
598 413
599 413
600 413
601 413
602 413
603 413
604 413
605 413
606 413
607 413
608 413
609 413
610 413
611 413
612 413
613 413
614 413
615 413
616 413
617 413
574 414
575 414
576 414
577 414
578 414
579 414
580 414
581 414
582 414
583 414
584 414
585 414
586 414
587 414
588 414
589 414
590 414
591 414
592 414
593 414
594 414
595 414
596 414
597 414
598 414
599 414
600 414
601 414
602 414
603 414
604 414
605 414
606 414
607 414
608 414
609 414
610 414
611 414
612 414
613 414
614 414
615 414
616 414
617 414
574 415
575 415
576 415
577 415
578 415
579 415
580 415
581 415
582 415
583 415
584 415
585 415
586 415
587 415
588 415
589 415
590 415
591 415
592 415
593 415
594 415
595 415
596 415
597 415
598 415
599 415
600 415
601 415
602 415
603 415
604 415
605 415
606 415
607 415
608 415
609 415
610 415
611 415
612 415
613 415
614 415
615 415
616 415
617 415
574 416
575 416
576 416
577 416
578 416
579 416
580 416
581 416
582 416
583 416
584 416
585 416
586 416
587 416
588 416
589 416
590 416
591 416
592 416
593 416
594 416
595 416
596 416
597 416
598 416
599 416
600 416
601 416
602 416
603 416
604 416
605 416
606 416
607 416
608 416
609 416
610 416
611 416
612 416
613 416
614 416
615 416
616 416
617 416
694 454
695 454
696 454
697 454
698 454
699 454
700 454
701 454
702 454
703 454
704 454
705 454
706 454
707 454
708 454
709 454
710 454
711 454
712 454
713 454
714 454
715 454
716 454
717 454
718 454
719 454
720 454
721 454
722 454
723 454
724 454
725 454
726 454
727 454
728 454
729 454
730 454
731 454
732 454
733 454
734 454
735 454
736 454
737 454
694 455
695 455
696 455
697 455
698 455
699 455
700 455
701 455
702 455
703 455
704 455
705 455
706 455
707 455
708 455
709 455
710 455
711 455
712 455
713 455
714 455
715 455
716 455
717 455
718 455
719 455
720 455
721 455
722 455
723 455
724 455
725 455
726 455
727 455
728 455
729 455
730 455
731 455
732 455
733 455
734 455
735 455
736 455
737 455
694 456
695 456
696 456
697 456
698 456
699 456
700 456
701 456
702 456
703 456
704 456
705 456
706 456
707 456
708 456
709 456
710 456
711 456
712 456
713 456
714 456
715 456
716 456
717 456
718 456
719 456
720 456
721 456
722 456
723 456
724 456
725 456
726 456
727 456
728 456
729 456
730 456
731 456
732 456
733 456
734 456
735 456
736 456
737 456
694 457
695 457
696 457
697 457
698 457
699 457
700 457
701 457
702 457
703 457
704 457
705 457
706 457
707 457
708 457
709 457
710 457
711 457
712 457
713 457
714 457
715 457
716 457
717 457
718 457
719 457
720 457
721 457
722 457
723 457
724 457
725 457
726 457
727 457
728 457
729 457
730 457
731 457
732 457
733 457
734 457
735 457
736 457
737 457
694 458
695 458
696 458
697 458
698 458
699 458
700 458
701 458
702 458
703 458
704 458
705 458
706 458
707 458
708 458
709 458
710 458
711 458
712 458
713 458
714 458
715 458
716 458
717 458
718 458
719 458
720 458
721 458
722 458
723 458
724 458
725 458
726 458
727 458
728 458
729 458
730 458
731 458
732 458
733 458
734 458
735 458
736 458
737 458
694 459
695 459
696 459
697 459
698 459
699 459
700 459
701 459
702 459
703 459
704 459
705 459
706 459
707 459
708 459
709 459
710 459
711 459
712 459
713 459
714 459
715 459
716 459
717 459
718 459
719 459
720 459
721 459
722 459
723 459
724 459
725 459
726 459
727 459
728 459
729 459
730 459
731 459
732 459
733 459
734 459
735 459
736 459
737 459
694 460
695 460
696 460
697 460
698 460
699 460
700 460
701 460
702 460
703 460
704 460
705 460
706 460
707 460
708 460
709 460
710 460
711 460
712 460
713 460
714 460
715 460
716 460
717 460
718 460
719 460
720 460
721 460
722 460
723 460
724 460
725 460
726 460
727 460
728 460
729 460
730 460
731 460
732 460
733 460
734 460
735 460
736 460
737 460
694 461
695 461
696 461
697 461
698 461
699 461
700 461
701 461
702 461
703 461
704 461
705 461
706 461
707 461
708 461
709 461
710 461
711 461
712 461
713 461
714 461
715 461
716 461
717 461
718 461
719 461
720 461
721 461
722 461
723 461
724 461
725 461
726 461
727 461
728 461
729 461
730 461
731 461
732 461
733 461
734 461
735 461
736 461
737 461
694 462
695 462
696 462
697 462
698 462
699 462
700 462
701 462
702 462
703 462
704 462
705 462
706 462
707 462
708 462
709 462
710 462
711 462
712 462
713 462
714 462
715 462
716 462
717 462
718 462
719 462
720 462
721 462
722 462
723 462
724 462
725 462
726 462
727 462
728 462
729 462
730 462
731 462
732 462
733 462
734 462
735 462
736 462
737 462
694 463
695 463
696 463
697 463
698 463
699 463
700 463
701 463
702 463
703 463
704 463
705 463
706 463
707 463
708 463
709 463
710 463
711 463
712 463
713 463
714 463
715 463
716 463
717 463
718 463
719 463
720 463
721 463
722 463
723 463
724 463
725 463
726 463
727 463
728 463
729 463
730 463
731 463
732 463
733 463
734 463
735 463
736 463
737 463
694 464
695 464
696 464
697 464
698 464
699 464
700 464
701 464
702 464
703 464
704 464
705 464
706 464
707 464
708 464
709 464
710 464
711 464
712 464
713 464
714 464
715 464
716 464
717 464
718 464
719 464
720 464
721 464
722 464
723 464
724 464
725 464
726 464
727 464
728 464
729 464
730 464
731 464
732 464
733 464
734 464
735 464
736 464
737 464
694 465
695 465
696 465
697 465
698 465
699 465
700 465
701 465
702 465
703 465
704 465
705 465
706 465
707 465
708 465
709 465
710 465
711 465
712 465
713 465
714 465
715 465
716 465
717 465
718 465
719 465
720 465
721 465
722 465
723 465
724 465
725 465
726 465
727 465
728 465
729 465
730 465
731 465
732 465
733 465
734 465
735 465
736 465
737 465
694 466
695 466
696 466
697 466
698 466
699 466
700 466
701 466
702 466
703 466
704 466
705 466
706 466
707 466
708 466
709 466
710 466
711 466
712 466
713 466
714 466
715 466
716 466
717 466
718 466
719 466
720 466
721 466
722 466
723 466
724 466
725 466
726 466
727 466
728 466
729 466
730 466
731 466
732 466
733 466
734 466
735 466
736 466
737 466
694 467
695 467
696 467
697 467
698 467
699 467
700 467
701 467
702 467
703 467
704 467
705 467
706 467
707 467
708 467
709 467
710 467
711 467
712 467
713 467
714 467
715 467
716 467
717 467
718 467
719 467
720 467
721 467
722 467
723 467
724 467
725 467
726 467
727 467
728 467
729 467
730 467
731 467
732 467
733 467
734 467
735 467
736 467
737 467
694 468
695 468
696 468
697 468
698 468
699 468
700 468
701 468
702 468
703 468
704 468
705 468
706 468
707 468
708 468
709 468
710 468
711 468
712 468
713 468
714 468
715 468
716 468
717 468
718 468
719 468
720 468
721 468
722 468
723 468
724 468
725 468
726 468
727 468
728 468
729 468
730 468
731 468
732 468
733 468
734 468
735 468
736 468
737 468
694 469
695 469
696 469
697 469
698 469
699 469
700 469
701 469
702 469
703 469
704 469
705 469
706 469
707 469
708 469
709 469
710 469
711 469
712 469
713 469
714 469
715 469
716 469
717 469
718 469
719 469
720 469
721 469
722 469
723 469
724 469
725 469
726 469
727 469
728 469
729 469
730 469
731 469
732 469
733 469
734 469
735 469
736 469
737 469
694 470
695 470
696 470
697 470
698 470
699 470
700 470
701 470
702 470
703 470
704 470
705 470
706 470
707 470
708 470
709 470
710 470
711 470
712 470
713 470
714 470
715 470
716 470
717 470
718 470
719 470
720 470
721 470
722 470
723 470
724 470
725 470
726 470
727 470
728 470
729 470
730 470
731 470
732 470
733 470
734 470
735 470
736 470
737 470
694 471
695 471
696 471
697 471
698 471
699 471
700 471
701 471
702 471
703 471
704 471
705 471
706 471
707 471
708 471
709 471
710 471
711 471
712 471
713 471
714 471
715 471
716 471
717 471
718 471
719 471
720 471
721 471
722 471
723 471
724 471
725 471
726 471
727 471
728 471
729 471
730 471
731 471
732 471
733 471
734 471
735 471
736 471
737 471
694 472
695 472
696 472
697 472
698 472
699 472
700 472
701 472
702 472
703 472
704 472
705 472
706 472
707 472
708 472
709 472
710 472
711 472
712 472
713 472
714 472
715 472
716 472
717 472
718 472
719 472
720 472
721 472
722 472
723 472
724 472
725 472
726 472
727 472
728 472
729 472
730 472
731 472
732 472
733 472
734 472
735 472
736 472
737 472
694 473
695 473
696 473
697 473
698 473
699 473
700 473
701 473
702 473
703 473
704 473
705 473
706 473
707 473
708 473
709 473
710 473
711 473
712 473
713 473
714 473
715 473
716 473
717 473
718 473
719 473
720 473
721 473
722 473
723 473
724 473
725 473
726 473
727 473
728 473
729 473
730 473
731 473
732 473
733 473
734 473
735 473
736 473
737 473
694 474
695 474
696 474
697 474
698 474
699 474
700 474
701 474
702 474
703 474
704 474
705 474
706 474
707 474
708 474
709 474
710 474
711 474
712 474
713 474
714 474
715 474
716 474
717 474
718 474
719 474
720 474
721 474
722 474
723 474
724 474
725 474
726 474
727 474
728 474
729 474
730 474
731 474
732 474
733 474
734 474
735 474
736 474
737 474
694 475
695 475
696 475
697 475
698 475
699 475
700 475
701 475
702 475
703 475
704 475
705 475
706 475
707 475
708 475
709 475
710 475
711 475
712 475
713 475
714 475
715 475
716 475
717 475
718 475
719 475
720 475
721 475
722 475
723 475
724 475
725 475
726 475
727 475
728 475
729 475
730 475
731 475
732 475
733 475
734 475
735 475
736 475
737 475
694 476
695 476
696 476
697 476
698 476
699 476
700 476
701 476
702 476
703 476
704 476
705 476
706 476
707 476
708 476
709 476
710 476
711 476
712 476
713 476
714 476
715 476
716 476
717 476
718 476
719 476
720 476
721 476
722 476
723 476
724 476
725 476
726 476
727 476
728 476
729 476
730 476
731 476
732 476
733 476
734 476
735 476
736 476
737 476
694 477
695 477
696 477
697 477
698 477
699 477
700 477
701 477
702 477
703 477
704 477
705 477
706 477
707 477
708 477
709 477
710 477
711 477
712 477
713 477
714 477
715 477
716 477
717 477
718 477
719 477
720 477
721 477
722 477
723 477
724 477
725 477
726 477
727 477
728 477
729 477
730 477
731 477
732 477
733 477
734 477
735 477
736 477
737 477
694 478
695 478
696 478
697 478
698 478
699 478
700 478
701 478
702 478
703 478
704 478
705 478
706 478
707 478
708 478
709 478
710 478
711 478
712 478
713 478
714 478
715 478
716 478
717 478
718 478
719 478
720 478
721 478
722 478
723 478
724 478
725 478
726 478
727 478
728 478
729 478
730 478
731 478
732 478
733 478
734 478
735 478
736 478
737 478
694 479
695 479
696 479
697 479
698 479
699 479
700 479
701 479
702 479
703 479
704 479
705 479
706 479
707 479
708 479
709 479
710 479
711 479
712 479
713 479
714 479
715 479
716 479
717 479
718 479
719 479
720 479
721 479
722 479
723 479
724 479
725 479
726 479
727 479
728 479
729 479
730 479
731 479
732 479
733 479
734 479
735 479
736 479
737 479
694 480
695 480
696 480
697 480
698 480
699 480
700 480
701 480
702 480
703 480
704 480
705 480
706 480
707 480
708 480
709 480
710 480
711 480
712 480
713 480
714 480
715 480
716 480
717 480
718 480
719 480
720 480
721 480
722 480
723 480
724 480
725 480
726 480
727 480
728 480
729 480
730 480
731 480
732 480
733 480
734 480
735 480
736 480
737 480
694 481
695 481
696 481
697 481
698 481
699 481
700 481
701 481
702 481
703 481
704 481
705 481
706 481
707 481
708 481
709 481
710 481
711 481
712 481
713 481
714 481
715 481
716 481
717 481
718 481
719 481
720 481
721 481
722 481
723 481
724 481
725 481
726 481
727 481
728 481
729 481
730 481
731 481
732 481
733 481
734 481
735 481
736 481
737 481
694 482
695 482
696 482
697 482
698 482
699 482
700 482
701 482
702 482
703 482
704 482
705 482
706 482
707 482
708 482
709 482
710 482
711 482
712 482
713 482
714 482
715 482
716 482
717 482
718 482
719 482
720 482
721 482
722 482
723 482
724 482
725 482
726 482
727 482
728 482
729 482
730 482
731 482
732 482
733 482
734 482
735 482
736 482
737 482
694 483
695 483
696 483
697 483
698 483
699 483
700 483
701 483
702 483
703 483
704 483
705 483
706 483
707 483
708 483
709 483
710 483
711 483
712 483
713 483
714 483
715 483
716 483
717 483
718 483
719 483
720 483
721 483
722 483
723 483
724 483
725 483
726 483
727 483
728 483
729 483
730 483
731 483
732 483
733 483
734 483
735 483
736 483
737 483
694 484
695 484
696 484
697 484
698 484
699 484
700 484
701 484
702 484
703 484
704 484
705 484
706 484
707 484
708 484
709 484
710 484
711 484
712 484
713 484
714 484
715 484
716 484
717 484
718 484
719 484
720 484
721 484
722 484
723 484
724 484
725 484
726 484
727 484
728 484
729 484
730 484
731 484
732 484
733 484
734 484
735 484
736 484
737 484
694 485
695 485
696 485
697 485
698 485
699 485
700 485
701 485
702 485
703 485
704 485
705 485
706 485
707 485
708 485
709 485
710 485
711 485
712 485
713 485
714 485
715 485
716 485
717 485
718 485
719 485
720 485
721 485
722 485
723 485
724 485
725 485
726 485
727 485
728 485
729 485
730 485
731 485
732 485
733 485
734 485
735 485
736 485
737 485
694 486
695 486
696 486
697 486
698 486
699 486
700 486
701 486
702 486
703 486
704 486
705 486
706 486
707 486
708 486
709 486
710 486
711 486
712 486
713 486
714 486
715 486
716 486
717 486
718 486
719 486
720 486
721 486
722 486
723 486
724 486
725 486
726 486
727 486
728 486
729 486
730 486
731 486
732 486
733 486
734 486
735 486
736 486
737 486
694 487
695 487
696 487
697 487
698 487
699 487
700 487
701 487
702 487
703 487
704 487
705 487
706 487
707 487
708 487
709 487
710 487
711 487
712 487
713 487
714 487
715 487
716 487
717 487
718 487
719 487
720 487
721 487
722 487
723 487
724 487
725 487
726 487
727 487
728 487
729 487
730 487
731 487
732 487
733 487
734 487
735 487
736 487
737 487
694 488
695 488
696 488
697 488
698 488
699 488
700 488
701 488
702 488
703 488
704 488
705 488
706 488
707 488
708 488
709 488
710 488
711 488
712 488
713 488
714 488
715 488
716 488
717 488
718 488
719 488
720 488
721 488
722 488
723 488
724 488
725 488
726 488
727 488
728 488
729 488
730 488
731 488
732 488
733 488
734 488
735 488
736 488
737 488
694 489
695 489
696 489
697 489
698 489
699 489
700 489
701 489
702 489
703 489
704 489
705 489
706 489
707 489
708 489
709 489
710 489
711 489
712 489
713 489
714 489
715 489
716 489
717 489
718 489
719 489
720 489
721 489
722 489
723 489
724 489
725 489
726 489
727 489
728 489
729 489
730 489
731 489
732 489
733 489
734 489
735 489
736 489
737 489
694 490
695 490
696 490
697 490
698 490
699 490
700 490
701 490
702 490
703 490
704 490
705 490
706 490
707 490
708 490
709 490
710 490
711 490
712 490
713 490
714 490
715 490
716 490
717 490
718 490
719 490
720 490
721 490
722 490
723 490
724 490
725 490
726 490
727 490
728 490
729 490
730 490
731 490
732 490
733 490
734 490
735 490
736 490
737 490
694 491
695 491
696 491
697 491
698 491
699 491
700 491
701 491
702 491
703 491
704 491
705 491
706 491
707 491
708 491
709 491
710 491
711 491
712 491
713 491
714 491
715 491
716 491
717 491
718 491
719 491
720 491
721 491
722 491
723 491
724 491
725 491
726 491
727 491
728 491
729 491
730 491
731 491
732 491
733 491
734 491
735 491
736 491
737 491
694 492
695 492
696 492
697 492
698 492
699 492
700 492
701 492
702 492
703 492
704 492
705 492
706 492
707 492
708 492
709 492
710 492
711 492
712 492
713 492
714 492
715 492
716 492
717 492
718 492
719 492
720 492
721 492
722 492
723 492
724 492
725 492
726 492
727 492
728 492
729 492
730 492
731 492
732 492
733 492
734 492
735 492
736 492
737 492
694 493
695 493
696 493
697 493
698 493
699 493
700 493
701 493
702 493
703 493
704 493
705 493
706 493
707 493
708 493
709 493
710 493
711 493
712 493
713 493
714 493
715 493
716 493
717 493
718 493
719 493
720 493
721 493
722 493
723 493
724 493
725 493
726 493
727 493
728 493
729 493
730 493
731 493
732 493
733 493
734 493
735 493
736 493
737 493
694 494
695 494
696 494
697 494
698 494
699 494
700 494
701 494
702 494
703 494
704 494
705 494
706 494
707 494
708 494
709 494
710 494
711 494
712 494
713 494
714 494
715 494
716 494
717 494
718 494
719 494
720 494
721 494
722 494
723 494
724 494
725 494
726 494
727 494
728 494
729 494
730 494
731 494
732 494
733 494
734 494
735 494
736 494
737 494
694 495
695 495
696 495
697 495
698 495
699 495
700 495
701 495
702 495
703 495
704 495
705 495
706 495
707 495
708 495
709 495
710 495
711 495
712 495
713 495
714 495
715 495
716 495
717 495
718 495
719 495
720 495
721 495
722 495
723 495
724 495
725 495
726 495
727 495
728 495
729 495
730 495
731 495
732 495
733 495
734 495
735 495
736 495
737 495
694 496
695 496
696 496
697 496
698 496
699 496
700 496
701 496
702 496
703 496
704 496
705 496
706 496
707 496
708 496
709 496
710 496
711 496
712 496
713 496
714 496
715 496
716 496
717 496
718 496
719 496
720 496
721 496
722 496
723 496
724 496
725 496
726 496
727 496
728 496
729 496
730 496
731 496
732 496
733 496
734 496
735 496
736 496
737 496
694 497
695 497
696 497
697 497
698 497
699 497
700 497
701 497
702 497
703 497
704 497
705 497
706 497
707 497
708 497
709 497
710 497
711 497
712 497
713 497
714 497
715 497
716 497
717 497
718 497
719 497
720 497
721 497
722 497
723 497
724 497
725 497
726 497
727 497
728 497
729 497
730 497
731 497
732 497
733 497
734 497
735 497
736 497
737 497
814 535
815 535
816 535
817 535
818 535
819 535
820 535
821 535
822 535
823 535
824 535
825 535
826 535
827 535
828 535
829 535
830 535
831 535
832 535
833 535
834 535
835 535
836 535
837 535
838 535
839 535
840 535
841 535
842 535
843 535
844 535
845 535
846 535
847 535
848 535
849 535
850 535
851 535
852 535
853 535
854 535
855 535
856 535
857 535
814 536
815 536
816 536
817 536
818 536
819 536
820 536
821 536
822 536
823 536
824 536
825 536
826 536
827 536
828 536
829 536
830 536
831 536
832 536
833 536
834 536
835 536
836 536
837 536
838 536
839 536
840 536
841 536
842 536
843 536
844 536
845 536
846 536
847 536
848 536
849 536
850 536
851 536
852 536
853 536
854 536
855 536
856 536
857 536
814 537
815 537
816 537
817 537
818 537
819 537
820 537
821 537
822 537
823 537
824 537
825 537
826 537
827 537
828 537
829 537
830 537
831 537
832 537
833 537
834 537
835 537
836 537
837 537
838 537
839 537
840 537
841 537
842 537
843 537
844 537
845 537
846 537
847 537
848 537
849 537
850 537
851 537
852 537
853 537
854 537
855 537
856 537
857 537
814 538
815 538
816 538
817 538
818 538
819 538
820 538
821 538
822 538
823 538
824 538
825 538
826 538
827 538
828 538
829 538
830 538
831 538
832 538
833 538
834 538
835 538
836 538
837 538
838 538
839 538
840 538
841 538
842 538
843 538
844 538
845 538
846 538
847 538
848 538
849 538
850 538
851 538
852 538
853 538
854 538
855 538
856 538
857 538
814 539
815 539
816 539
817 539
818 539
819 539
820 539
821 539
822 539
823 539
824 539
825 539
826 539
827 539
828 539
829 539
830 539
831 539
832 539
833 539
834 539
835 539
836 539
837 539
838 539
839 539
840 539
841 539
842 539
843 539
844 539
845 539
846 539
847 539
848 539
849 539
850 539
851 539
852 539
853 539
854 539
855 539
856 539
857 539
814 540
815 540
816 540
817 540
818 540
819 540
820 540
821 540
822 540
823 540
824 540
825 540
826 540
827 540
828 540
829 540
830 540
831 540
832 540
833 540
834 540
835 540
836 540
837 540
838 540
839 540
840 540
841 540
842 540
843 540
844 540
845 540
846 540
847 540
848 540
849 540
850 540
851 540
852 540
853 540
854 540
855 540
856 540
857 540
814 541
815 541
816 541
817 541
818 541
819 541
820 541
821 541
822 541
823 541
824 541
825 541
826 541
827 541
828 541
829 541
830 541
831 541
832 541
833 541
834 541
835 541
836 541
837 541
838 541
839 541
840 541
841 541
842 541
843 541
844 541
845 541
846 541
847 541
848 541
849 541
850 541
851 541
852 541
853 541
854 541
855 541
856 541
857 541
814 542
815 542
816 542
817 542
818 542
819 542
820 542
821 542
822 542
823 542
824 542
825 542
826 542
827 542
828 542
829 542
830 542
831 542
832 542
833 542
834 542
835 542
836 542
837 542
838 542
839 542
840 542
841 542
842 542
843 542
844 542
845 542
846 542
847 542
848 542
849 542
850 542
851 542
852 542
853 542
854 542
855 542
856 542
857 542
814 543
815 543
816 543
817 543
818 543
819 543
820 543
821 543
822 543
823 543
824 543
825 543
826 543
827 543
828 543
829 543
830 543
831 543
832 543
833 543
834 543
835 543
836 543
837 543
838 543
839 543
840 543
841 543
842 543
843 543
844 543
845 543
846 543
847 543
848 543
849 543
850 543
851 543
852 543
853 543
854 543
855 543
856 543
857 543
814 544
815 544
816 544
817 544
818 544
819 544
820 544
821 544
822 544
823 544
824 544
825 544
826 544
827 544
828 544
829 544
830 544
831 544
832 544
833 544
834 544
835 544
836 544
837 544
838 544
839 544
840 544
841 544
842 544
843 544
844 544
845 544
846 544
847 544
848 544
849 544
850 544
851 544
852 544
853 544
854 544
855 544
856 544
857 544
814 545
815 545
816 545
817 545
818 545
819 545
820 545
821 545
822 545
823 545
824 545
825 545
826 545
827 545
828 545
829 545
830 545
831 545
832 545
833 545
834 545
835 545
836 545
837 545
838 545
839 545
840 545
841 545
842 545
843 545
844 545
845 545
846 545
847 545
848 545
849 545
850 545
851 545
852 545
853 545
854 545
855 545
856 545
857 545
814 546
815 546
816 546
817 546
818 546
819 546
820 546
821 546
822 546
823 546
824 546
825 546
826 546
827 546
828 546
829 546
830 546
831 546
832 546
833 546
834 546
835 546
836 546
837 546
838 546
839 546
840 546
841 546
842 546
843 546
844 546
845 546
846 546
847 546
848 546
849 546
850 546
851 546
852 546
853 546
854 546
855 546
856 546
857 546
814 547
815 547
816 547
817 547
818 547
819 547
820 547
821 547
822 547
823 547
824 547
825 547
826 547
827 547
828 547
829 547
830 547
831 547
832 547
833 547
834 547
835 547
836 547
837 547
838 547
839 547
840 547
841 547
842 547
843 547
844 547
845 547
846 547
847 547
848 547
849 547
850 547
851 547
852 547
853 547
854 547
855 547
856 547
857 547
814 548
815 548
816 548
817 548
818 548
819 548
820 548
821 548
822 548
823 548
824 548
825 548
826 548
827 548
828 548
829 548
830 548
831 548
832 548
833 548
834 548
835 548
836 548
837 548
838 548
839 548
840 548
841 548
842 548
843 548
844 548
845 548
846 548
847 548
848 548
849 548
850 548
851 548
852 548
853 548
854 548
855 548
856 548
857 548
814 549
815 549
816 549
817 549
818 549
819 549
820 549
821 549
822 549
823 549
824 549
825 549
826 549
827 549
828 549
829 549
830 549
831 549
832 549
833 549
834 549
835 549
836 549
837 549
838 549
839 549
840 549
841 549
842 549
843 549
844 549
845 549
846 549
847 549
848 549
849 549
850 549
851 549
852 549
853 549
854 549
855 549
856 549
857 549
814 550
815 550
816 550
817 550
818 550
819 550
820 550
821 550
822 550
823 550
824 550
825 550
826 550
827 550
828 550
829 550
830 550
831 550
832 550
833 550
834 550
835 550
836 550
837 550
838 550
839 550
840 550
841 550
842 550
843 550
844 550
845 550
846 550
847 550
848 550
849 550
850 550
851 550
852 550
853 550
854 550
855 550
856 550
857 550
814 551
815 551
816 551
817 551
818 551
819 551
820 551
821 551
822 551
823 551
824 551
825 551
826 551
827 551
828 551
829 551
830 551
831 551
832 551
833 551
834 551
835 551
836 551
837 551
838 551
839 551
840 551
841 551
842 551
843 551
844 551
845 551
846 551
847 551
848 551
849 551
850 551
851 551
852 551
853 551
854 551
855 551
856 551
857 551
814 552
815 552
816 552
817 552
818 552
819 552
820 552
821 552
822 552
823 552
824 552
825 552
826 552
827 552
828 552
829 552
830 552
831 552
832 552
833 552
834 552
835 552
836 552
837 552
838 552
839 552
840 552
841 552
842 552
843 552
844 552
845 552
846 552
847 552
848 552
849 552
850 552
851 552
852 552
853 552
854 552
855 552
856 552
857 552
814 553
815 553
816 553
817 553
818 553
819 553
820 553
821 553
822 553
823 553
824 553
825 553
826 553
827 553
828 553
829 553
830 553
831 553
832 553
833 553
834 553
835 553
836 553
837 553
838 553
839 553
840 553
841 553
842 553
843 553
844 553
845 553
846 553
847 553
848 553
849 553
850 553
851 553
852 553
853 553
854 553
855 553
856 553
857 553
814 554
815 554
816 554
817 554
818 554
819 554
820 554
821 554
822 554
823 554
824 554
825 554
826 554
827 554
828 554
829 554
830 554
831 554
832 554
833 554
834 554
835 554
836 554
837 554
838 554
839 554
840 554
841 554
842 554
843 554
844 554
845 554
846 554
847 554
848 554
849 554
850 554
851 554
852 554
853 554
854 554
855 554
856 554
857 554
814 555
815 555
816 555
817 555
818 555
819 555
820 555
821 555
822 555
823 555
824 555
825 555
826 555
827 555
828 555
829 555
830 555
831 555
832 555
833 555
834 555
835 555
836 555
837 555
838 555
839 555
840 555
841 555
842 555
843 555
844 555
845 555
846 555
847 555
848 555
849 555
850 555
851 555
852 555
853 555
854 555
855 555
856 555
857 555
814 556
815 556
816 556
817 556
818 556
819 556
820 556
821 556
822 556
823 556
824 556
825 556
826 556
827 556
828 556
829 556
830 556
831 556
832 556
833 556
834 556
835 556
836 556
837 556
838 556
839 556
840 556
841 556
842 556
843 556
844 556
845 556
846 556
847 556
848 556
849 556
850 556
851 556
852 556
853 556
854 556
855 556
856 556
857 556
814 557
815 557
816 557
817 557
818 557
819 557
820 557
821 557
822 557
823 557
824 557
825 557
826 557
827 557
828 557
829 557
830 557
831 557
832 557
833 557
834 557
835 557
836 557
837 557
838 557
839 557
840 557
841 557
842 557
843 557
844 557
845 557
846 557
847 557
848 557
849 557
850 557
851 557
852 557
853 557
854 557
855 557
856 557
857 557
814 558
815 558
816 558
817 558
818 558
819 558
820 558
821 558
822 558
823 558
824 558
825 558
826 558
827 558
828 558
829 558
830 558
831 558
832 558
833 558
834 558
835 558
836 558
837 558
838 558
839 558
840 558
841 558
842 558
843 558
844 558
845 558
846 558
847 558
848 558
849 558
850 558
851 558
852 558
853 558
854 558
855 558
856 558
857 558
814 559
815 559
816 559
817 559
818 559
819 559
820 559
821 559
822 559
823 559
824 559
825 559
826 559
827 559
828 559
829 559
830 559
831 559
832 559
833 559
834 559
835 559
836 559
837 559
838 559
839 559
840 559
841 559
842 559
843 559
844 559
845 559
846 559
847 559
848 559
849 559
850 559
851 559
852 559
853 559
854 559
855 559
856 559
857 559
814 560
815 560
816 560
817 560
818 560
819 560
820 560
821 560
822 560
823 560
824 560
825 560
826 560
827 560
828 560
829 560
830 560
831 560
832 560
833 560
834 560
835 560
836 560
837 560
838 560
839 560
840 560
841 560
842 560
843 560
844 560
845 560
846 560
847 560
848 560
849 560
850 560
851 560
852 560
853 560
854 560
855 560
856 560
857 560
814 561
815 561
816 561
817 561
818 561
819 561
820 561
821 561
822 561
823 561
824 561
825 561
826 561
827 561
828 561
829 561
830 561
831 561
832 561
833 561
834 561
835 561
836 561
837 561
838 561
839 561
840 561
841 561
842 561
843 561
844 561
845 561
846 561
847 561
848 561
849 561
850 561
851 561
852 561
853 561
854 561
855 561
856 561
857 561
814 562
815 562
816 562
817 562
818 562
819 562
820 562
821 562
822 562
823 562
824 562
825 562
826 562
827 562
828 562
829 562
830 562
831 562
832 562
833 562
834 562
835 562
836 562
837 562
838 562
839 562
840 562
841 562
842 562
843 562
844 562
845 562
846 562
847 562
848 562
849 562
850 562
851 562
852 562
853 562
854 562
855 562
856 562
857 562
814 563
815 563
816 563
817 563
818 563
819 563
820 563
821 563
822 563
823 563
824 563
825 563
826 563
827 563
828 563
829 563
830 563
831 563
832 563
833 563
834 563
835 563
836 563
837 563
838 563
839 563
840 563
841 563
842 563
843 563
844 563
845 563
846 563
847 563
848 563
849 563
850 563
851 563
852 563
853 563
854 563
855 563
856 563
857 563
814 564
815 564
816 564
817 564
818 564
819 564
820 564
821 564
822 564
823 564
824 564
825 564
826 564
827 564
828 564
829 564
830 564
831 564
832 564
833 564
834 564
835 564
836 564
837 564
838 564
839 564
840 564
841 564
842 564
843 564
844 564
845 564
846 564
847 564
848 564
849 564
850 564
851 564
852 564
853 564
854 564
855 564
856 564
857 564
814 565
815 565
816 565
817 565
818 565
819 565
820 565
821 565
822 565
823 565
824 565
825 565
826 565
827 565
828 565
829 565
830 565
831 565
832 565
833 565
834 565
835 565
836 565
837 565
838 565
839 565
840 565
841 565
842 565
843 565
844 565
845 565
846 565
847 565
848 565
849 565
850 565
851 565
852 565
853 565
854 565
855 565
856 565
857 565
814 566
815 566
816 566
817 566
818 566
819 566
820 566
821 566
822 566
823 566
824 566
825 566
826 566
827 566
828 566
829 566
830 566
831 566
832 566
833 566
834 566
835 566
836 566
837 566
838 566
839 566
840 566
841 566
842 566
843 566
844 566
845 566
846 566
847 566
848 566
849 566
850 566
851 566
852 566
853 566
854 566
855 566
856 566
857 566
814 567
815 567
816 567
817 567
818 567
819 567
820 567
821 567
822 567
823 567
824 567
825 567
826 567
827 567
828 567
829 567
830 567
831 567
832 567
833 567
834 567
835 567
836 567
837 567
838 567
839 567
840 567
841 567
842 567
843 567
844 567
845 567
846 567
847 567
848 567
849 567
850 567
851 567
852 567
853 567
854 567
855 567
856 567
857 567
814 568
815 568
816 568
817 568
818 568
819 568
820 568
821 568
822 568
823 568
824 568
825 568
826 568
827 568
828 568
829 568
830 568
831 568
832 568
833 568
834 568
835 568
836 568
837 568
838 568
839 568
840 568
841 568
842 568
843 568
844 568
845 568
846 568
847 568
848 568
849 568
850 568
851 568
852 568
853 568
854 568
855 568
856 568
857 568
814 569
815 569
816 569
817 569
818 569
819 569
820 569
821 569
822 569
823 569
824 569
825 569
826 569
827 569
828 569
829 569
830 569
831 569
832 569
833 569
834 569
835 569
836 569
837 569
838 569
839 569
840 569
841 569
842 569
843 569
844 569
845 569
846 569
847 569
848 569
849 569
850 569
851 569
852 569
853 569
854 569
855 569
856 569
857 569
814 570
815 570
816 570
817 570
818 570
819 570
820 570
821 570
822 570
823 570
824 570
825 570
826 570
827 570
828 570
829 570
830 570
831 570
832 570
833 570
834 570
835 570
836 570
837 570
838 570
839 570
840 570
841 570
842 570
843 570
844 570
845 570
846 570
847 570
848 570
849 570
850 570
851 570
852 570
853 570
854 570
855 570
856 570
857 570
814 571
815 571
816 571
817 571
818 571
819 571
820 571
821 571
822 571
823 571
824 571
825 571
826 571
827 571
828 571
829 571
830 571
831 571
832 571
833 571
834 571
835 571
836 571
837 571
838 571
839 571
840 571
841 571
842 571
843 571
844 571
845 571
846 571
847 571
848 571
849 571
850 571
851 571
852 571
853 571
854 571
855 571
856 571
857 571
814 572
815 572
816 572
817 572
818 572
819 572
820 572
821 572
822 572
823 572
824 572
825 572
826 572
827 572
828 572
829 572
830 572
831 572
832 572
833 572
834 572
835 572
836 572
837 572
838 572
839 572
840 572
841 572
842 572
843 572
844 572
845 572
846 572
847 572
848 572
849 572
850 572
851 572
852 572
853 572
854 572
855 572
856 572
857 572
814 573
815 573
816 573
817 573
818 573
819 573
820 573
821 573
822 573
823 573
824 573
825 573
826 573
827 573
828 573
829 573
830 573
831 573
832 573
833 573
834 573
835 573
836 573
837 573
838 573
839 573
840 573
841 573
842 573
843 573
844 573
845 573
846 573
847 573
848 573
849 573
850 573
851 573
852 573
853 573
854 573
855 573
856 573
857 573
814 574
815 574
816 574
817 574
818 574
819 574
820 574
821 574
822 574
823 574
824 574
825 574
826 574
827 574
828 574
829 574
830 574
831 574
832 574
833 574
834 574
835 574
836 574
837 574
838 574
839 574
840 574
841 574
842 574
843 574
844 574
845 574
846 574
847 574
848 574
849 574
850 574
851 574
852 574
853 574
854 574
855 574
856 574
857 574
814 575
815 575
816 575
817 575
818 575
819 575
820 575
821 575
822 575
823 575
824 575
825 575
826 575
827 575
828 575
829 575
830 575
831 575
832 575
833 575
834 575
835 575
836 575
837 575
838 575
839 575
840 575
841 575
842 575
843 575
844 575
845 575
846 575
847 575
848 575
849 575
850 575
851 575
852 575
853 575
854 575
855 575
856 575
857 575
814 576
815 576
816 576
817 576
818 576
819 576
820 576
821 576
822 576
823 576
824 576
825 576
826 576
827 576
828 576
829 576
830 576
831 576
832 576
833 576
834 576
835 576
836 576
837 576
838 576
839 576
840 576
841 576
842 576
843 576
844 576
845 576
846 576
847 576
848 576
849 576
850 576
851 576
852 576
853 576
854 576
855 576
856 576
857 576
814 577
815 577
816 577
817 577
818 577
819 577
820 577
821 577
822 577
823 577
824 577
825 577
826 577
827 577
828 577
829 577
830 577
831 577
832 577
833 577
834 577
835 577
836 577
837 577
838 577
839 577
840 577
841 577
842 577
843 577
844 577
845 577
846 577
847 577
848 577
849 577
850 577
851 577
852 577
853 577
854 577
855 577
856 577
857 577
814 578
815 578
816 578
817 578
818 578
819 578
820 578
821 578
822 578
823 578
824 578
825 578
826 578
827 578
828 578
829 578
830 578
831 578
832 578
833 578
834 578
835 578
836 578
837 578
838 578
839 578
840 578
841 578
842 578
843 578
844 578
845 578
846 578
847 578
848 578
849 578
850 578
851 578
852 578
853 578
854 578
855 578
856 578
857 578
934 616
935 616
936 616
937 616
938 616
939 616
940 616
941 616
942 616
943 616
944 616
945 616
946 616
947 616
948 616
949 616
950 616
951 616
952 616
953 616
954 616
955 616
956 616
957 616
958 616
959 616
960 616
961 616
962 616
963 616
964 616
965 616
966 616
967 616
968 616
969 616
970 616
971 616
972 616
973 616
974 616
975 616
976 616
977 616
934 617
935 617
936 617
937 617
938 617
939 617
940 617
941 617
942 617
943 617
944 617
945 617
946 617
947 617
948 617
949 617
950 617
951 617
952 617
953 617
954 617
955 617
956 617
957 617
958 617
959 617
960 617
961 617
962 617
963 617
964 617
965 617
966 617
967 617
968 617
969 617
970 617
971 617
972 617
973 617
974 617
975 617
976 617
977 617
934 618
935 618
936 618
937 618
938 618
939 618
940 618
941 618
942 618
943 618
944 618
945 618
946 618
947 618
948 618
949 618
950 618
951 618
952 618
953 618
954 618
955 618
956 618
957 618
958 618
959 618
960 618
961 618
962 618
963 618
964 618
965 618
966 618
967 618
968 618
969 618
970 618
971 618
972 618
973 618
974 618
975 618
976 618
977 618
934 619
935 619
936 619
937 619
938 619
939 619
940 619
941 619
942 619
943 619
944 619
945 619
946 619
947 619
948 619
949 619
950 619
951 619
952 619
953 619
954 619
955 619
956 619
957 619
958 619
959 619
960 619
961 619
962 619
963 619
964 619
965 619
966 619
967 619
968 619
969 619
970 619
971 619
972 619
973 619
974 619
975 619
976 619
977 619
934 620
935 620
936 620
937 620
938 620
939 620
940 620
941 620
942 620
943 620
944 620
945 620
946 620
947 620
948 620
949 620
950 620
951 620
952 620
953 620
954 620
955 620
956 620
957 620
958 620
959 620
960 620
961 620
962 620
963 620
964 620
965 620
966 620
967 620
968 620
969 620
970 620
971 620
972 620
973 620
974 620
975 620
976 620
977 620
934 621
935 621
936 621
937 621
938 621
939 621
940 621
941 621
942 621
943 621
944 621
945 621
946 621
947 621
948 621
949 621
950 621
951 621
952 621
953 621
954 621
955 621
956 621
957 621
958 621
959 621
960 621
961 621
962 621
963 621
964 621
965 621
966 621
967 621
968 621
969 621
970 621
971 621
972 621
973 621
974 621
975 621
976 621
977 621
934 622
935 622
936 622
937 622
938 622
939 622
940 622
941 622
942 622
943 622
944 622
945 622
946 622
947 622
948 622
949 622
950 622
951 622
952 622
953 622
954 622
955 622
956 622
957 622
958 622
959 622
960 622
961 622
962 622
963 622
964 622
965 622
966 622
967 622
968 622
969 622
970 622
971 622
972 622
973 622
974 622
975 622
976 622
977 622
934 623
935 623
936 623
937 623
938 623
939 623
940 623
941 623
942 623
943 623
944 623
945 623
946 623
947 623
948 623
949 623
950 623
951 623
952 623
953 623
954 623
955 623
956 623
957 623
958 623
959 623
960 623
961 623
962 623
963 623
964 623
965 623
966 623
967 623
968 623
969 623
970 623
971 623
972 623
973 623
974 623
975 623
976 623
977 623
934 624
935 624
936 624
937 624
938 624
939 624
940 624
941 624
942 624
943 624
944 624
945 624
946 624
947 624
948 624
949 624
950 624
951 624
952 624
953 624
954 624
955 624
956 624
957 624
958 624
959 624
960 624
961 624
962 624
963 624
964 624
965 624
966 624
967 624
968 624
969 624
970 624
971 624
972 624
973 624
974 624
975 624
976 624
977 624
934 625
935 625
936 625
937 625
938 625
939 625
940 625
941 625
942 625
943 625
944 625
945 625
946 625
947 625
948 625
949 625
950 625
951 625
952 625
953 625
954 625
955 625
956 625
957 625
958 625
959 625
960 625
961 625
962 625
963 625
964 625
965 625
966 625
967 625
968 625
969 625
970 625
971 625
972 625
973 625
974 625
975 625
976 625
977 625
934 626
935 626
936 626
937 626
938 626
939 626
940 626
941 626
942 626
943 626
944 626
945 626
946 626
947 626
948 626
949 626
950 626
951 626
952 626
953 626
954 626
955 626
956 626
957 626
958 626
959 626
960 626
961 626
962 626
963 626
964 626
965 626
966 626
967 626
968 626
969 626
970 626
971 626
972 626
973 626
974 626
975 626
976 626
977 626
934 627
935 627
936 627
937 627
938 627
939 627
940 627
941 627
942 627
943 627
944 627
945 627
946 627
947 627
948 627
949 627
950 627
951 627
952 627
953 627
954 627
955 627
956 627
957 627
958 627
959 627
960 627
961 627
962 627
963 627
964 627
965 627
966 627
967 627
968 627
969 627
970 627
971 627
972 627
973 627
974 627
975 627
976 627
977 627
934 628
935 628
936 628
937 628
938 628
939 628
940 628
941 628
942 628
943 628
944 628
945 628
946 628
947 628
948 628
949 628
950 628
951 628
952 628
953 628
954 628
955 628
956 628
957 628
958 628
959 628
960 628
961 628
962 628
963 628
964 628
965 628
966 628
967 628
968 628
969 628
970 628
971 628
972 628
973 628
974 628
975 628
976 628
977 628
934 629
935 629
936 629
937 629
938 629
939 629
940 629
941 629
942 629
943 629
944 629
945 629
946 629
947 629
948 629
949 629
950 629
951 629
952 629
953 629
954 629
955 629
956 629
957 629
958 629
959 629
960 629
961 629
962 629
963 629
964 629
965 629
966 629
967 629
968 629
969 629
970 629
971 629
972 629
973 629
974 629
975 629
976 629
977 629
934 630
935 630
936 630
937 630
938 630
939 630
940 630
941 630
942 630
943 630
944 630
945 630
946 630
947 630
948 630
949 630
950 630
951 630
952 630
953 630
954 630
955 630
956 630
957 630
958 630
959 630
960 630
961 630
962 630
963 630
964 630
965 630
966 630
967 630
968 630
969 630
970 630
971 630
972 630
973 630
974 630
975 630
976 630
977 630
934 631
935 631
936 631
937 631
938 631
939 631
940 631
941 631
942 631
943 631
944 631
945 631
946 631
947 631
948 631
949 631
950 631
951 631
952 631
953 631
954 631
955 631
956 631
957 631
958 631
959 631
960 631
961 631
962 631
963 631
964 631
965 631
966 631
967 631
968 631
969 631
970 631
971 631
972 631
973 631
974 631
975 631
976 631
977 631
934 632
935 632
936 632
937 632
938 632
939 632
940 632
941 632
942 632
943 632
944 632
945 632
946 632
947 632
948 632
949 632
950 632
951 632
952 632
953 632
954 632
955 632
956 632
957 632
958 632
959 632
960 632
961 632
962 632
963 632
964 632
965 632
966 632
967 632
968 632
969 632
970 632
971 632
972 632
973 632
974 632
975 632
976 632
977 632
934 633
935 633
936 633
937 633
938 633
939 633
940 633
941 633
942 633
943 633
944 633
945 633
946 633
947 633
948 633
949 633
950 633
951 633
952 633
953 633
954 633
955 633
956 633
957 633
958 633
959 633
960 633
961 633
962 633
963 633
964 633
965 633
966 633
967 633
968 633
969 633
970 633
971 633
972 633
973 633
974 633
975 633
976 633
977 633
934 634
935 634
936 634
937 634
938 634
939 634
940 634
941 634
942 634
943 634
944 634
945 634
946 634
947 634
948 634
949 634
950 634
951 634
952 634
953 634
954 634
955 634
956 634
957 634
958 634
959 634
960 634
961 634
962 634
963 634
964 634
965 634
966 634
967 634
968 634
969 634
970 634
971 634
972 634
973 634
974 634
975 634
976 634
977 634
934 635
935 635
936 635
937 635
938 635
939 635
940 635
941 635
942 635
943 635
944 635
945 635
946 635
947 635
948 635
949 635
950 635
951 635
952 635
953 635
954 635
955 635
956 635
957 635
958 635
959 635
960 635
961 635
962 635
963 635
964 635
965 635
966 635
967 635
968 635
969 635
970 635
971 635
972 635
973 635
974 635
975 635
976 635
977 635
934 636
935 636
936 636
937 636
938 636
939 636
940 636
941 636
942 636
943 636
944 636
945 636
946 636
947 636
948 636
949 636
950 636
951 636
952 636
953 636
954 636
955 636
956 636
957 636
958 636
959 636
960 636
961 636
962 636
963 636
964 636
965 636
966 636
967 636
968 636
969 636
970 636
971 636
972 636
973 636
974 636
975 636
976 636
977 636
934 637
935 637
936 637
937 637
938 637
939 637
940 637
941 637
942 637
943 637
944 637
945 637
946 637
947 637
948 637
949 637
950 637
951 637
952 637
953 637
954 637
955 637
956 637
957 637
958 637
959 637
960 637
961 637
962 637
963 637
964 637
965 637
966 637
967 637
968 637
969 637
970 637
971 637
972 637
973 637
974 637
975 637
976 637
977 637
934 638
935 638
936 638
937 638
938 638
939 638
940 638
941 638
942 638
943 638
944 638
945 638
946 638
947 638
948 638
949 638
950 638
951 638
952 638
953 638
954 638
955 638
956 638
957 638
958 638
959 638
960 638
961 638
962 638
963 638
964 638
965 638
966 638
967 638
968 638
969 638
970 638
971 638
972 638
973 638
974 638
975 638
976 638
977 638
934 639
935 639
936 639
937 639
938 639
939 639
940 639
941 639
942 639
943 639
944 639
945 639
946 639
947 639
948 639
949 639
950 639
951 639
952 639
953 639
954 639
955 639
956 639
957 639
958 639
959 639
960 639
961 639
962 639
963 639
964 639
965 639
966 639
967 639
968 639
969 639
970 639
971 639
972 639
973 639
974 639
975 639
976 639
977 639
934 640
935 640
936 640
937 640
938 640
939 640
940 640
941 640
942 640
943 640
944 640
945 640
946 640
947 640
948 640
949 640
950 640
951 640
952 640
953 640
954 640
955 640
956 640
957 640
958 640
959 640
960 640
961 640
962 640
963 640
964 640
965 640
966 640
967 640
968 640
969 640
970 640
971 640
972 640
973 640
974 640
975 640
976 640
977 640
934 641
935 641
936 641
937 641
938 641
939 641
940 641
941 641
942 641
943 641
944 641
945 641
946 641
947 641
948 641
949 641
950 641
951 641
952 641
953 641
954 641
955 641
956 641
957 641
958 641
959 641
960 641
961 641
962 641
963 641
964 641
965 641
966 641
967 641
968 641
969 641
970 641
971 641
972 641
973 641
974 641
975 641
976 641
977 641
934 642
935 642
936 642
937 642
938 642
939 642
940 642
941 642
942 642
943 642
944 642
945 642
946 642
947 642
948 642
949 642
950 642
951 642
952 642
953 642
954 642
955 642
956 642
957 642
958 642
959 642
960 642
961 642
962 642
963 642
964 642
965 642
966 642
967 642
968 642
969 642
970 642
971 642
972 642
973 642
974 642
975 642
976 642
977 642
934 643
935 643
936 643
937 643
938 643
939 643
940 643
941 643
942 643
943 643
944 643
945 643
946 643
947 643
948 643
949 643
950 643
951 643
952 643
953 643
954 643
955 643
956 643
957 643
958 643
959 643
960 643
961 643
962 643
963 643
964 643
965 643
966 643
967 643
968 643
969 643
970 643
971 643
972 643
973 643
974 643
975 643
976 643
977 643
934 644
935 644
936 644
937 644
938 644
939 644
940 644
941 644
942 644
943 644
944 644
945 644
946 644
947 644
948 644
949 644
950 644
951 644
952 644
953 644
954 644
955 644
956 644
957 644
958 644
959 644
960 644
961 644
962 644
963 644
964 644
965 644
966 644
967 644
968 644
969 644
970 644
971 644
972 644
973 644
974 644
975 644
976 644
977 644
934 645
935 645
936 645
937 645
938 645
939 645
940 645
941 645
942 645
943 645
944 645
945 645
946 645
947 645
948 645
949 645
950 645
951 645
952 645
953 645
954 645
955 645
956 645
957 645
958 645
959 645
960 645
961 645
962 645
963 645
964 645
965 645
966 645
967 645
968 645
969 645
970 645
971 645
972 645
973 645
974 645
975 645
976 645
977 645
934 646
935 646
936 646
937 646
938 646
939 646
940 646
941 646
942 646
943 646
944 646
945 646
946 646
947 646
948 646
949 646
950 646
951 646
952 646
953 646
954 646
955 646
956 646
957 646
958 646
959 646
960 646
961 646
962 646
963 646
964 646
965 646
966 646
967 646
968 646
969 646
970 646
971 646
972 646
973 646
974 646
975 646
976 646
977 646
934 647
935 647
936 647
937 647
938 647
939 647
940 647
941 647
942 647
943 647
944 647
945 647
946 647
947 647
948 647
949 647
950 647
951 647
952 647
953 647
954 647
955 647
956 647
957 647
958 647
959 647
960 647
961 647
962 647
963 647
964 647
965 647
966 647
967 647
968 647
969 647
970 647
971 647
972 647
973 647
974 647
975 647
976 647
977 647
934 648
935 648
936 648
937 648
938 648
939 648
940 648
941 648
942 648
943 648
944 648
945 648
946 648
947 648
948 648
949 648
950 648
951 648
952 648
953 648
954 648
955 648
956 648
957 648
958 648
959 648
960 648
961 648
962 648
963 648
964 648
965 648
966 648
967 648
968 648
969 648
970 648
971 648
972 648
973 648
974 648
975 648
976 648
977 648
934 649
935 649
936 649
937 649
938 649
939 649
940 649
941 649
942 649
943 649
944 649
945 649
946 649
947 649
948 649
949 649
950 649
951 649
952 649
953 649
954 649
955 649
956 649
957 649
958 649
959 649
960 649
961 649
962 649
963 649
964 649
965 649
966 649
967 649
968 649
969 649
970 649
971 649
972 649
973 649
974 649
975 649
976 649
977 649
934 650
935 650
936 650
937 650
938 650
939 650
940 650
941 650
942 650
943 650
944 650
945 650
946 650
947 650
948 650
949 650
950 650
951 650
952 650
953 650
954 650
955 650
956 650
957 650
958 650
959 650
960 650
961 650
962 650
963 650
964 650
965 650
966 650
967 650
968 650
969 650
970 650
971 650
972 650
973 650
974 650
975 650
976 650
977 650
934 651
935 651
936 651
937 651
938 651
939 651
940 651
941 651
942 651
943 651
944 651
945 651
946 651
947 651
948 651
949 651
950 651
951 651
952 651
953 651
954 651
955 651
956 651
957 651
958 651
959 651
960 651
961 651
962 651
963 651
964 651
965 651
966 651
967 651
968 651
969 651
970 651
971 651
972 651
973 651
974 651
975 651
976 651
977 651
934 652
935 652
936 652
937 652
938 652
939 652
940 652
941 652
942 652
943 652
944 652
945 652
946 652
947 652
948 652
949 652
950 652
951 652
952 652
953 652
954 652
955 652
956 652
957 652
958 652
959 652
960 652
961 652
962 652
963 652
964 652
965 652
966 652
967 652
968 652
969 652
970 652
971 652
972 652
973 652
974 652
975 652
976 652
977 652
934 653
935 653
936 653
937 653
938 653
939 653
940 653
941 653
942 653
943 653
944 653
945 653
946 653
947 653
948 653
949 653
950 653
951 653
952 653
953 653
954 653
955 653
956 653
957 653
958 653
959 653
960 653
961 653
962 653
963 653
964 653
965 653
966 653
967 653
968 653
969 653
970 653
971 653
972 653
973 653
974 653
975 653
976 653
977 653
934 654
935 654
936 654
937 654
938 654
939 654
940 654
941 654
942 654
943 654
944 654
945 654
946 654
947 654
948 654
949 654
950 654
951 654
952 654
953 654
954 654
955 654
956 654
957 654
958 654
959 654
960 654
961 654
962 654
963 654
964 654
965 654
966 654
967 654
968 654
969 654
970 654
971 654
972 654
973 654
974 654
975 654
976 654
977 654
934 655
935 655
936 655
937 655
938 655
939 655
940 655
941 655
942 655
943 655
944 655
945 655
946 655
947 655
948 655
949 655
950 655
951 655
952 655
953 655
954 655
955 655
956 655
957 655
958 655
959 655
960 655
961 655
962 655
963 655
964 655
965 655
966 655
967 655
968 655
969 655
970 655
971 655
972 655
973 655
974 655
975 655
976 655
977 655
934 656
935 656
936 656
937 656
938 656
939 656
940 656
941 656
942 656
943 656
944 656
945 656
946 656
947 656
948 656
949 656
950 656
951 656
952 656
953 656
954 656
955 656
956 656
957 656
958 656
959 656
960 656
961 656
962 656
963 656
964 656
965 656
966 656
967 656
968 656
969 656
970 656
971 656
972 656
973 656
974 656
975 656
976 656
977 656
934 657
935 657
936 657
937 657
938 657
939 657
940 657
941 657
942 657
943 657
944 657
945 657
946 657
947 657
948 657
949 657
950 657
951 657
952 657
953 657
954 657
955 657
956 657
957 657
958 657
959 657
960 657
961 657
962 657
963 657
964 657
965 657
966 657
967 657
968 657
969 657
970 657
971 657
972 657
973 657
974 657
975 657
976 657
977 657
934 658
935 658
936 658
937 658
938 658
939 658
940 658
941 658
942 658
943 658
944 658
945 658
946 658
947 658
948 658
949 658
950 658
951 658
952 658
953 658
954 658
955 658
956 658
957 658
958 658
959 658
960 658
961 658
962 658
963 658
964 658
965 658
966 658
967 658
968 658
969 658
970 658
971 658
972 658
973 658
974 658
975 658
976 658
977 658
934 659
935 659
936 659
937 659
938 659
939 659
940 659
941 659
942 659
943 659
944 659
945 659
946 659
947 659
948 659
949 659
950 659
951 659
952 659
953 659
954 659
955 659
956 659
957 659
958 659
959 659
960 659
961 659
962 659
963 659
964 659
965 659
966 659
967 659
968 659
969 659
970 659
971 659
972 659
973 659
974 659
975 659
976 659
977 659
1054 697
1055 697
1056 697
1057 697
1058 697
1059 697
1060 697
1061 697
1062 697
1063 697
1064 697
1065 697
1066 697
1067 697
1068 697
1069 697
1070 697
1071 697
1072 697
1073 697
1074 697
1075 697
1076 697
1077 697
1078 697
1079 697
1080 697
1081 697
1082 697
1083 697
1084 697
1085 697
1086 697
1087 697
1088 697
1089 697
1090 697
1091 697
1092 697
1093 697
1094 697
1095 697
1096 697
1097 697
1054 698
1055 698
1056 698
1057 698
1058 698
1059 698
1060 698
1061 698
1062 698
1063 698
1064 698
1065 698
1066 698
1067 698
1068 698
1069 698
1070 698
1071 698
1072 698
1073 698
1074 698
1075 698
1076 698
1077 698
1078 698
1079 698
1080 698
1081 698
1082 698
1083 698
1084 698
1085 698
1086 698
1087 698
1088 698
1089 698
1090 698
1091 698
1092 698
1093 698
1094 698
1095 698
1096 698
1097 698
1054 699
1055 699
1056 699
1057 699
1058 699
1059 699
1060 699
1061 699
1062 699
1063 699
1064 699
1065 699
1066 699
1067 699
1068 699
1069 699
1070 699
1071 699
1072 699
1073 699
1074 699
1075 699
1076 699
1077 699
1078 699
1079 699
1080 699
1081 699
1082 699
1083 699
1084 699
1085 699
1086 699
1087 699
1088 699
1089 699
1090 699
1091 699
1092 699
1093 699
1094 699
1095 699
1096 699
1097 699
1054 700
1055 700
1056 700
1057 700
1058 700
1059 700
1060 700
1061 700
1062 700
1063 700
1064 700
1065 700
1066 700
1067 700
1068 700
1069 700
1070 700
1071 700
1072 700
1073 700
1074 700
1075 700
1076 700
1077 700
1078 700
1079 700
1080 700
1081 700
1082 700
1083 700
1084 700
1085 700
1086 700
1087 700
1088 700
1089 700
1090 700
1091 700
1092 700
1093 700
1094 700
1095 700
1096 700
1097 700
1054 701
1055 701
1056 701
1057 701
1058 701
1059 701
1060 701
1061 701
1062 701
1063 701
1064 701
1065 701
1066 701
1067 701
1068 701
1069 701
1070 701
1071 701
1072 701
1073 701
1074 701
1075 701
1076 701
1077 701
1078 701
1079 701
1080 701
1081 701
1082 701
1083 701
1084 701
1085 701
1086 701
1087 701
1088 701
1089 701
1090 701
1091 701
1092 701
1093 701
1094 701
1095 701
1096 701
1097 701
1054 702
1055 702
1056 702
1057 702
1058 702
1059 702
1060 702
1061 702
1062 702
1063 702
1064 702
1065 702
1066 702
1067 702
1068 702
1069 702
1070 702
1071 702
1072 702
1073 702
1074 702
1075 702
1076 702
1077 702
1078 702
1079 702
1080 702
1081 702
1082 702
1083 702
1084 702
1085 702
1086 702
1087 702
1088 702
1089 702
1090 702
1091 702
1092 702
1093 702
1094 702
1095 702
1096 702
1097 702
1054 703
1055 703
1056 703
1057 703
1058 703
1059 703
1060 703
1061 703
1062 703
1063 703
1064 703
1065 703
1066 703
1067 703
1068 703
1069 703
1070 703
1071 703
1072 703
1073 703
1074 703
1075 703
1076 703
1077 703
1078 703
1079 703
1080 703
1081 703
1082 703
1083 703
1084 703
1085 703
1086 703
1087 703
1088 703
1089 703
1090 703
1091 703
1092 703
1093 703
1094 703
1095 703
1096 703
1097 703
1054 704
1055 704
1056 704
1057 704
1058 704
1059 704
1060 704
1061 704
1062 704
1063 704
1064 704
1065 704
1066 704
1067 704
1068 704
1069 704
1070 704
1071 704
1072 704
1073 704
1074 704
1075 704
1076 704
1077 704
1078 704
1079 704
1080 704
1081 704
1082 704
1083 704
1084 704
1085 704
1086 704
1087 704
1088 704
1089 704
1090 704
1091 704
1092 704
1093 704
1094 704
1095 704
1096 704
1097 704
1054 705
1055 705
1056 705
1057 705
1058 705
1059 705
1060 705
1061 705
1062 705
1063 705
1064 705
1065 705
1066 705
1067 705
1068 705
1069 705
1070 705
1071 705
1072 705
1073 705
1074 705
1075 705
1076 705
1077 705
1078 705
1079 705
1080 705
1081 705
1082 705
1083 705
1084 705
1085 705
1086 705
1087 705
1088 705
1089 705
1090 705
1091 705
1092 705
1093 705
1094 705
1095 705
1096 705
1097 705
1054 706
1055 706
1056 706
1057 706
1058 706
1059 706
1060 706
1061 706
1062 706
1063 706
1064 706
1065 706
1066 706
1067 706
1068 706
1069 706
1070 706
1071 706
1072 706
1073 706
1074 706
1075 706
1076 706
1077 706
1078 706
1079 706
1080 706
1081 706
1082 706
1083 706
1084 706
1085 706
1086 706
1087 706
1088 706
1089 706
1090 706
1091 706
1092 706
1093 706
1094 706
1095 706
1096 706
1097 706
1054 707
1055 707
1056 707
1057 707
1058 707
1059 707
1060 707
1061 707
1062 707
1063 707
1064 707
1065 707
1066 707
1067 707
1068 707
1069 707
1070 707
1071 707
1072 707
1073 707
1074 707
1075 707
1076 707
1077 707
1078 707
1079 707
1080 707
1081 707
1082 707
1083 707
1084 707
1085 707
1086 707
1087 707
1088 707
1089 707
1090 707
1091 707
1092 707
1093 707
1094 707
1095 707
1096 707
1097 707
1054 708
1055 708
1056 708
1057 708
1058 708
1059 708
1060 708
1061 708
1062 708
1063 708
1064 708
1065 708
1066 708
1067 708
1068 708
1069 708
1070 708
1071 708
1072 708
1073 708
1074 708
1075 708
1076 708
1077 708
1078 708
1079 708
1080 708
1081 708
1082 708
1083 708
1084 708
1085 708
1086 708
1087 708
1088 708
1089 708
1090 708
1091 708
1092 708
1093 708
1094 708
1095 708
1096 708
1097 708
1054 709
1055 709
1056 709
1057 709
1058 709
1059 709
1060 709
1061 709
1062 709
1063 709
1064 709
1065 709
1066 709
1067 709
1068 709
1069 709
1070 709
1071 709
1072 709
1073 709
1074 709
1075 709
1076 709
1077 709
1078 709
1079 709
1080 709
1081 709
1082 709
1083 709
1084 709
1085 709
1086 709
1087 709
1088 709
1089 709
1090 709
1091 709
1092 709
1093 709
1094 709
1095 709
1096 709
1097 709
1054 710
1055 710
1056 710
1057 710
1058 710
1059 710
1060 710
1061 710
1062 710
1063 710
1064 710
1065 710
1066 710
1067 710
1068 710
1069 710
1070 710
1071 710
1072 710
1073 710
1074 710
1075 710
1076 710
1077 710
1078 710
1079 710
1080 710
1081 710
1082 710
1083 710
1084 710
1085 710
1086 710
1087 710
1088 710
1089 710
1090 710
1091 710
1092 710
1093 710
1094 710
1095 710
1096 710
1097 710
1054 711
1055 711
1056 711
1057 711
1058 711
1059 711
1060 711
1061 711
1062 711
1063 711
1064 711
1065 711
1066 711
1067 711
1068 711
1069 711
1070 711
1071 711
1072 711
1073 711
1074 711
1075 711
1076 711
1077 711
1078 711
1079 711
1080 711
1081 711
1082 711
1083 711
1084 711
1085 711
1086 711
1087 711
1088 711
1089 711
1090 711
1091 711
1092 711
1093 711
1094 711
1095 711
1096 711
1097 711
1054 712
1055 712
1056 712
1057 712
1058 712
1059 712
1060 712
1061 712
1062 712
1063 712
1064 712
1065 712
1066 712
1067 712
1068 712
1069 712
1070 712
1071 712
1072 712
1073 712
1074 712
1075 712
1076 712
1077 712
1078 712
1079 712
1080 712
1081 712
1082 712
1083 712
1084 712
1085 712
1086 712
1087 712
1088 712
1089 712
1090 712
1091 712
1092 712
1093 712
1094 712
1095 712
1096 712
1097 712
1054 713
1055 713
1056 713
1057 713
1058 713
1059 713
1060 713
1061 713
1062 713
1063 713
1064 713
1065 713
1066 713
1067 713
1068 713
1069 713
1070 713
1071 713
1072 713
1073 713
1074 713
1075 713
1076 713
1077 713
1078 713
1079 713
1080 713
1081 713
1082 713
1083 713
1084 713
1085 713
1086 713
1087 713
1088 713
1089 713
1090 713
1091 713
1092 713
1093 713
1094 713
1095 713
1096 713
1097 713
1054 714
1055 714
1056 714
1057 714
1058 714
1059 714
1060 714
1061 714
1062 714
1063 714
1064 714
1065 714
1066 714
1067 714
1068 714
1069 714
1070 714
1071 714
1072 714
1073 714
1074 714
1075 714
1076 714
1077 714
1078 714
1079 714
1080 714
1081 714
1082 714
1083 714
1084 714
1085 714
1086 714
1087 714
1088 714
1089 714
1090 714
1091 714
1092 714
1093 714
1094 714
1095 714
1096 714
1097 714
1054 715
1055 715
1056 715
1057 715
1058 715
1059 715
1060 715
1061 715
1062 715
1063 715
1064 715
1065 715
1066 715
1067 715
1068 715
1069 715
1070 715
1071 715
1072 715
1073 715
1074 715
1075 715
1076 715
1077 715
1078 715
1079 715
1080 715
1081 715
1082 715
1083 715
1084 715
1085 715
1086 715
1087 715
1088 715
1089 715
1090 715
1091 715
1092 715
1093 715
1094 715
1095 715
1096 715
1097 715
1054 716
1055 716
1056 716
1057 716
1058 716
1059 716
1060 716
1061 716
1062 716
1063 716
1064 716
1065 716
1066 716
1067 716
1068 716
1069 716
1070 716
1071 716
1072 716
1073 716
1074 716
1075 716
1076 716
1077 716
1078 716
1079 716
1080 716
1081 716
1082 716
1083 716
1084 716
1085 716
1086 716
1087 716
1088 716
1089 716
1090 716
1091 716
1092 716
1093 716
1094 716
1095 716
1096 716
1097 716
1054 717
1055 717
1056 717
1057 717
1058 717
1059 717
1060 717
1061 717
1062 717
1063 717
1064 717
1065 717
1066 717
1067 717
1068 717
1069 717
1070 717
1071 717
1072 717
1073 717
1074 717
1075 717
1076 717
1077 717
1078 717
1079 717
1080 717
1081 717
1082 717
1083 717
1084 717
1085 717
1086 717
1087 717
1088 717
1089 717
1090 717
1091 717
1092 717
1093 717
1094 717
1095 717
1096 717
1097 717
1054 718
1055 718
1056 718
1057 718
1058 718
1059 718
1060 718
1061 718
1062 718
1063 718
1064 718
1065 718
1066 718
1067 718
1068 718
1069 718
1070 718
1071 718
1072 718
1073 718
1074 718
1075 718
1076 718
1077 718
1078 718
1079 718
1080 718
1081 718
1082 718
1083 718
1084 718
1085 718
1086 718
1087 718
1088 718
1089 718
1090 718
1091 718
1092 718
1093 718
1094 718
1095 718
1096 718
1097 718
1054 719
1055 719
1056 719
1057 719
1058 719
1059 719
1060 719
1061 719
1062 719
1063 719
1064 719
1065 719
1066 719
1067 719
1068 719
1069 719
1070 719
1071 719
1072 719
1073 719
1074 719
1075 719
1076 719
1077 719
1078 719
1079 719
1080 719
1081 719
1082 719
1083 719
1084 719
1085 719
1086 719
1087 719
1088 719
1089 719
1090 719
1091 719
1092 719
1093 719
1094 719
1095 719
1096 719
1097 719
1054 720
1055 720
1056 720
1057 720
1058 720
1059 720
1060 720
1061 720
1062 720
1063 720
1064 720
1065 720
1066 720
1067 720
1068 720
1069 720
1070 720
1071 720
1072 720
1073 720
1074 720
1075 720
1076 720
1077 720
1078 720
1079 720
1080 720
1081 720
1082 720
1083 720
1084 720
1085 720
1086 720
1087 720
1088 720
1089 720
1090 720
1091 720
1092 720
1093 720
1094 720
1095 720
1096 720
1097 720
1054 721
1055 721
1056 721
1057 721
1058 721
1059 721
1060 721
1061 721
1062 721
1063 721
1064 721
1065 721
1066 721
1067 721
1068 721
1069 721
1070 721
1071 721
1072 721
1073 721
1074 721
1075 721
1076 721
1077 721
1078 721
1079 721
1080 721
1081 721
1082 721
1083 721
1084 721
1085 721
1086 721
1087 721
1088 721
1089 721
1090 721
1091 721
1092 721
1093 721
1094 721
1095 721
1096 721
1097 721
1054 722
1055 722
1056 722
1057 722
1058 722
1059 722
1060 722
1061 722
1062 722
1063 722
1064 722
1065 722
1066 722
1067 722
1068 722
1069 722
1070 722
1071 722
1072 722
1073 722
1074 722
1075 722
1076 722
1077 722
1078 722
1079 722
1080 722
1081 722
1082 722
1083 722
1084 722
1085 722
1086 722
1087 722
1088 722
1089 722
1090 722
1091 722
1092 722
1093 722
1094 722
1095 722
1096 722
1097 722
1054 723
1055 723
1056 723
1057 723
1058 723
1059 723
1060 723
1061 723
1062 723
1063 723
1064 723
1065 723
1066 723
1067 723
1068 723
1069 723
1070 723
1071 723
1072 723
1073 723
1074 723
1075 723
1076 723
1077 723
1078 723
1079 723
1080 723
1081 723
1082 723
1083 723
1084 723
1085 723
1086 723
1087 723
1088 723
1089 723
1090 723
1091 723
1092 723
1093 723
1094 723
1095 723
1096 723
1097 723
1054 724
1055 724
1056 724
1057 724
1058 724
1059 724
1060 724
1061 724
1062 724
1063 724
1064 724
1065 724
1066 724
1067 724
1068 724
1069 724
1070 724
1071 724
1072 724
1073 724
1074 724
1075 724
1076 724
1077 724
1078 724
1079 724
1080 724
1081 724
1082 724
1083 724
1084 724
1085 724
1086 724
1087 724
1088 724
1089 724
1090 724
1091 724
1092 724
1093 724
1094 724
1095 724
1096 724
1097 724
1054 725
1055 725
1056 725
1057 725
1058 725
1059 725
1060 725
1061 725
1062 725
1063 725
1064 725
1065 725
1066 725
1067 725
1068 725
1069 725
1070 725
1071 725
1072 725
1073 725
1074 725
1075 725
1076 725
1077 725
1078 725
1079 725
1080 725
1081 725
1082 725
1083 725
1084 725
1085 725
1086 725
1087 725
1088 725
1089 725
1090 725
1091 725
1092 725
1093 725
1094 725
1095 725
1096 725
1097 725
1054 726
1055 726
1056 726
1057 726
1058 726
1059 726
1060 726
1061 726
1062 726
1063 726
1064 726
1065 726
1066 726
1067 726
1068 726
1069 726
1070 726
1071 726
1072 726
1073 726
1074 726
1075 726
1076 726
1077 726
1078 726
1079 726
1080 726
1081 726
1082 726
1083 726
1084 726
1085 726
1086 726
1087 726
1088 726
1089 726
1090 726
1091 726
1092 726
1093 726
1094 726
1095 726
1096 726
1097 726
1054 727
1055 727
1056 727
1057 727
1058 727
1059 727
1060 727
1061 727
1062 727
1063 727
1064 727
1065 727
1066 727
1067 727
1068 727
1069 727
1070 727
1071 727
1072 727
1073 727
1074 727
1075 727
1076 727
1077 727
1078 727
1079 727
1080 727
1081 727
1082 727
1083 727
1084 727
1085 727
1086 727
1087 727
1088 727
1089 727
1090 727
1091 727
1092 727
1093 727
1094 727
1095 727
1096 727
1097 727
1054 728
1055 728
1056 728
1057 728
1058 728
1059 728
1060 728
1061 728
1062 728
1063 728
1064 728
1065 728
1066 728
1067 728
1068 728
1069 728
1070 728
1071 728
1072 728
1073 728
1074 728
1075 728
1076 728
1077 728
1078 728
1079 728
1080 728
1081 728
1082 728
1083 728
1084 728
1085 728
1086 728
1087 728
1088 728
1089 728
1090 728
1091 728
1092 728
1093 728
1094 728
1095 728
1096 728
1097 728
1054 729
1055 729
1056 729
1057 729
1058 729
1059 729
1060 729
1061 729
1062 729
1063 729
1064 729
1065 729
1066 729
1067 729
1068 729
1069 729
1070 729
1071 729
1072 729
1073 729
1074 729
1075 729
1076 729
1077 729
1078 729
1079 729
1080 729
1081 729
1082 729
1083 729
1084 729
1085 729
1086 729
1087 729
1088 729
1089 729
1090 729
1091 729
1092 729
1093 729
1094 729
1095 729
1096 729
1097 729
1054 730
1055 730
1056 730
1057 730
1058 730
1059 730
1060 730
1061 730
1062 730
1063 730
1064 730
1065 730
1066 730
1067 730
1068 730
1069 730
1070 730
1071 730
1072 730
1073 730
1074 730
1075 730
1076 730
1077 730
1078 730
1079 730
1080 730
1081 730
1082 730
1083 730
1084 730
1085 730
1086 730
1087 730
1088 730
1089 730
1090 730
1091 730
1092 730
1093 730
1094 730
1095 730
1096 730
1097 730
1054 731
1055 731
1056 731
1057 731
1058 731
1059 731
1060 731
1061 731
1062 731
1063 731
1064 731
1065 731
1066 731
1067 731
1068 731
1069 731
1070 731
1071 731
1072 731
1073 731
1074 731
1075 731
1076 731
1077 731
1078 731
1079 731
1080 731
1081 731
1082 731
1083 731
1084 731
1085 731
1086 731
1087 731
1088 731
1089 731
1090 731
1091 731
1092 731
1093 731
1094 731
1095 731
1096 731
1097 731
1054 732
1055 732
1056 732
1057 732
1058 732
1059 732
1060 732
1061 732
1062 732
1063 732
1064 732
1065 732
1066 732
1067 732
1068 732
1069 732
1070 732
1071 732
1072 732
1073 732
1074 732
1075 732
1076 732
1077 732
1078 732
1079 732
1080 732
1081 732
1082 732
1083 732
1084 732
1085 732
1086 732
1087 732
1088 732
1089 732
1090 732
1091 732
1092 732
1093 732
1094 732
1095 732
1096 732
1097 732
1054 733
1055 733
1056 733
1057 733
1058 733
1059 733
1060 733
1061 733
1062 733
1063 733
1064 733
1065 733
1066 733
1067 733
1068 733
1069 733
1070 733
1071 733
1072 733
1073 733
1074 733
1075 733
1076 733
1077 733
1078 733
1079 733
1080 733
1081 733
1082 733
1083 733
1084 733
1085 733
1086 733
1087 733
1088 733
1089 733
1090 733
1091 733
1092 733
1093 733
1094 733
1095 733
1096 733
1097 733
1054 734
1055 734
1056 734
1057 734
1058 734
1059 734
1060 734
1061 734
1062 734
1063 734
1064 734
1065 734
1066 734
1067 734
1068 734
1069 734
1070 734
1071 734
1072 734
1073 734
1074 734
1075 734
1076 734
1077 734
1078 734
1079 734
1080 734
1081 734
1082 734
1083 734
1084 734
1085 734
1086 734
1087 734
1088 734
1089 734
1090 734
1091 734
1092 734
1093 734
1094 734
1095 734
1096 734
1097 734
1054 735
1055 735
1056 735
1057 735
1058 735
1059 735
1060 735
1061 735
1062 735
1063 735
1064 735
1065 735
1066 735
1067 735
1068 735
1069 735
1070 735
1071 735
1072 735
1073 735
1074 735
1075 735
1076 735
1077 735
1078 735
1079 735
1080 735
1081 735
1082 735
1083 735
1084 735
1085 735
1086 735
1087 735
1088 735
1089 735
1090 735
1091 735
1092 735
1093 735
1094 735
1095 735
1096 735
1097 735
1054 736
1055 736
1056 736
1057 736
1058 736
1059 736
1060 736
1061 736
1062 736
1063 736
1064 736
1065 736
1066 736
1067 736
1068 736
1069 736
1070 736
1071 736
1072 736
1073 736
1074 736
1075 736
1076 736
1077 736
1078 736
1079 736
1080 736
1081 736
1082 736
1083 736
1084 736
1085 736
1086 736
1087 736
1088 736
1089 736
1090 736
1091 736
1092 736
1093 736
1094 736
1095 736
1096 736
1097 736
1054 737
1055 737
1056 737
1057 737
1058 737
1059 737
1060 737
1061 737
1062 737
1063 737
1064 737
1065 737
1066 737
1067 737
1068 737
1069 737
1070 737
1071 737
1072 737
1073 737
1074 737
1075 737
1076 737
1077 737
1078 737
1079 737
1080 737
1081 737
1082 737
1083 737
1084 737
1085 737
1086 737
1087 737
1088 737
1089 737
1090 737
1091 737
1092 737
1093 737
1094 737
1095 737
1096 737
1097 737
1054 738
1055 738
1056 738
1057 738
1058 738
1059 738
1060 738
1061 738
1062 738
1063 738
1064 738
1065 738
1066 738
1067 738
1068 738
1069 738
1070 738
1071 738
1072 738
1073 738
1074 738
1075 738
1076 738
1077 738
1078 738
1079 738
1080 738
1081 738
1082 738
1083 738
1084 738
1085 738
1086 738
1087 738
1088 738
1089 738
1090 738
1091 738
1092 738
1093 738
1094 738
1095 738
1096 738
1097 738
1054 739
1055 739
1056 739
1057 739
1058 739
1059 739
1060 739
1061 739
1062 739
1063 739
1064 739
1065 739
1066 739
1067 739
1068 739
1069 739
1070 739
1071 739
1072 739
1073 739
1074 739
1075 739
1076 739
1077 739
1078 739
1079 739
1080 739
1081 739
1082 739
1083 739
1084 739
1085 739
1086 739
1087 739
1088 739
1089 739
1090 739
1091 739
1092 739
1093 739
1094 739
1095 739
1096 739
1097 739
1054 740
1055 740
1056 740
1057 740
1058 740
1059 740
1060 740
1061 740
1062 740
1063 740
1064 740
1065 740
1066 740
1067 740
1068 740
1069 740
1070 740
1071 740
1072 740
1073 740
1074 740
1075 740
1076 740
1077 740
1078 740
1079 740
1080 740
1081 740
1082 740
1083 740
1084 740
1085 740
1086 740
1087 740
1088 740
1089 740
1090 740
1091 740
1092 740
1093 740
1094 740
1095 740
1096 740
1097 740
1174 778
1175 778
1176 778
1177 778
1178 778
1179 778
1180 778
1181 778
1182 778
1183 778
1184 778
1185 778
1186 778
1187 778
1188 778
1189 778
1190 778
1191 778
1192 778
1193 778
1194 778
1195 778
1196 778
1197 778
1198 778
1199 778
1200 778
1201 778
1202 778
1203 778
1204 778
1205 778
1206 778
1207 778
1208 778
1209 778
1210 778
1211 778
1212 778
1213 778
1214 778
1215 778
1216 778
1217 778
1174 779
1175 779
1176 779
1177 779
1178 779
1179 779
1180 779
1181 779
1182 779
1183 779
1184 779
1185 779
1186 779
1187 779
1188 779
1189 779
1190 779
1191 779
1192 779
1193 779
1194 779
1195 779
1196 779
1197 779
1198 779
1199 779
1200 779
1201 779
1202 779
1203 779
1204 779
1205 779
1206 779
1207 779
1208 779
1209 779
1210 779
1211 779
1212 779
1213 779
1214 779
1215 779
1216 779
1217 779
1174 780
1175 780
1176 780
1177 780
1178 780
1179 780
1180 780
1181 780
1182 780
1183 780
1184 780
1185 780
1186 780
1187 780
1188 780
1189 780
1190 780
1191 780
1192 780
1193 780
1194 780
1195 780
1196 780
1197 780
1198 780
1199 780
1200 780
1201 780
1202 780
1203 780
1204 780
1205 780
1206 780
1207 780
1208 780
1209 780
1210 780
1211 780
1212 780
1213 780
1214 780
1215 780
1216 780
1217 780
1174 781
1175 781
1176 781
1177 781
1178 781
1179 781
1180 781
1181 781
1182 781
1183 781
1184 781
1185 781
1186 781
1187 781
1188 781
1189 781
1190 781
1191 781
1192 781
1193 781
1194 781
1195 781
1196 781
1197 781
1198 781
1199 781
1200 781
1201 781
1202 781
1203 781
1204 781
1205 781
1206 781
1207 781
1208 781
1209 781
1210 781
1211 781
1212 781
1213 781
1214 781
1215 781
1216 781
1217 781
1174 782
1175 782
1176 782
1177 782
1178 782
1179 782
1180 782
1181 782
1182 782
1183 782
1184 782
1185 782
1186 782
1187 782
1188 782
1189 782
1190 782
1191 782
1192 782
1193 782
1194 782
1195 782
1196 782
1197 782
1198 782
1199 782
1200 782
1201 782
1202 782
1203 782
1204 782
1205 782
1206 782
1207 782
1208 782
1209 782
1210 782
1211 782
1212 782
1213 782
1214 782
1215 782
1216 782
1217 782
1174 783
1175 783
1176 783
1177 783
1178 783
1179 783
1180 783
1181 783
1182 783
1183 783
1184 783
1185 783
1186 783
1187 783
1188 783
1189 783
1190 783
1191 783
1192 783
1193 783
1194 783
1195 783
1196 783
1197 783
1198 783
1199 783
1200 783
1201 783
1202 783
1203 783
1204 783
1205 783
1206 783
1207 783
1208 783
1209 783
1210 783
1211 783
1212 783
1213 783
1214 783
1215 783
1216 783
1217 783
1174 784
1175 784
1176 784
1177 784
1178 784
1179 784
1180 784
1181 784
1182 784
1183 784
1184 784
1185 784
1186 784
1187 784
1188 784
1189 784
1190 784
1191 784
1192 784
1193 784
1194 784
1195 784
1196 784
1197 784
1198 784
1199 784
1200 784
1201 784
1202 784
1203 784
1204 784
1205 784
1206 784
1207 784
1208 784
1209 784
1210 784
1211 784
1212 784
1213 784
1214 784
1215 784
1216 784
1217 784
1174 785
1175 785
1176 785
1177 785
1178 785
1179 785
1180 785
1181 785
1182 785
1183 785
1184 785
1185 785
1186 785
1187 785
1188 785
1189 785
1190 785
1191 785
1192 785
1193 785
1194 785
1195 785
1196 785
1197 785
1198 785
1199 785
1200 785
1201 785
1202 785
1203 785
1204 785
1205 785
1206 785
1207 785
1208 785
1209 785
1210 785
1211 785
1212 785
1213 785
1214 785
1215 785
1216 785
1217 785
1174 786
1175 786
1176 786
1177 786
1178 786
1179 786
1180 786
1181 786
1182 786
1183 786
1184 786
1185 786
1186 786
1187 786
1188 786
1189 786
1190 786
1191 786
1192 786
1193 786
1194 786
1195 786
1196 786
1197 786
1198 786
1199 786
1200 786
1201 786
1202 786
1203 786
1204 786
1205 786
1206 786
1207 786
1208 786
1209 786
1210 786
1211 786
1212 786
1213 786
1214 786
1215 786
1216 786
1217 786
1174 787
1175 787
1176 787
1177 787
1178 787
1179 787
1180 787
1181 787
1182 787
1183 787
1184 787
1185 787
1186 787
1187 787
1188 787
1189 787
1190 787
1191 787
1192 787
1193 787
1194 787
1195 787
1196 787
1197 787
1198 787
1199 787
1200 787
1201 787
1202 787
1203 787
1204 787
1205 787
1206 787
1207 787
1208 787
1209 787
1210 787
1211 787
1212 787
1213 787
1214 787
1215 787
1216 787
1217 787
1174 788
1175 788
1176 788
1177 788
1178 788
1179 788
1180 788
1181 788
1182 788
1183 788
1184 788
1185 788
1186 788
1187 788
1188 788
1189 788
1190 788
1191 788
1192 788
1193 788
1194 788
1195 788
1196 788
1197 788
1198 788
1199 788
1200 788
1201 788
1202 788
1203 788
1204 788
1205 788
1206 788
1207 788
1208 788
1209 788
1210 788
1211 788
1212 788
1213 788
1214 788
1215 788
1216 788
1217 788
1174 789
1175 789
1176 789
1177 789
1178 789
1179 789
1180 789
1181 789
1182 789
1183 789
1184 789
1185 789
1186 789
1187 789
1188 789
1189 789
1190 789
1191 789
1192 789
1193 789
1194 789
1195 789
1196 789
1197 789
1198 789
1199 789
1200 789
1201 789
1202 789
1203 789
1204 789
1205 789
1206 789
1207 789
1208 789
1209 789
1210 789
1211 789
1212 789
1213 789
1214 789
1215 789
1216 789
1217 789
1174 790
1175 790
1176 790
1177 790
1178 790
1179 790
1180 790
1181 790
1182 790
1183 790
1184 790
1185 790
1186 790
1187 790
1188 790
1189 790
1190 790
1191 790
1192 790
1193 790
1194 790
1195 790
1196 790
1197 790
1198 790
1199 790
1200 790
1201 790
1202 790
1203 790
1204 790
1205 790
1206 790
1207 790
1208 790
1209 790
1210 790
1211 790
1212 790
1213 790
1214 790
1215 790
1216 790
1217 790
1174 791
1175 791
1176 791
1177 791
1178 791
1179 791
1180 791
1181 791
1182 791
1183 791
1184 791
1185 791
1186 791
1187 791
1188 791
1189 791
1190 791
1191 791
1192 791
1193 791
1194 791
1195 791
1196 791
1197 791
1198 791
1199 791
1200 791
1201 791
1202 791
1203 791
1204 791
1205 791
1206 791
1207 791
1208 791
1209 791
1210 791
1211 791
1212 791
1213 791
1214 791
1215 791
1216 791
1217 791
1174 792
1175 792
1176 792
1177 792
1178 792
1179 792
1180 792
1181 792
1182 792
1183 792
1184 792
1185 792
1186 792
1187 792
1188 792
1189 792
1190 792
1191 792
1192 792
1193 792
1194 792
1195 792
1196 792
1197 792
1198 792
1199 792
1200 792
1201 792
1202 792
1203 792
1204 792
1205 792
1206 792
1207 792
1208 792
1209 792
1210 792
1211 792
1212 792
1213 792
1214 792
1215 792
1216 792
1217 792
1174 793
1175 793
1176 793
1177 793
1178 793
1179 793
1180 793
1181 793
1182 793
1183 793
1184 793
1185 793
1186 793
1187 793
1188 793
1189 793
1190 793
1191 793
1192 793
1193 793
1194 793
1195 793
1196 793
1197 793
1198 793
1199 793
1200 793
1201 793
1202 793
1203 793
1204 793
1205 793
1206 793
1207 793
1208 793
1209 793
1210 793
1211 793
1212 793
1213 793
1214 793
1215 793
1216 793
1217 793
1174 794
1175 794
1176 794
1177 794
1178 794
1179 794
1180 794
1181 794
1182 794
1183 794
1184 794
1185 794
1186 794
1187 794
1188 794
1189 794
1190 794
1191 794
1192 794
1193 794
1194 794
1195 794
1196 794
1197 794
1198 794
1199 794
1200 794
1201 794
1202 794
1203 794
1204 794
1205 794
1206 794
1207 794
1208 794
1209 794
1210 794
1211 794
1212 794
1213 794
1214 794
1215 794
1216 794
1217 794
1174 795
1175 795
1176 795
1177 795
1178 795
1179 795
1180 795
1181 795
1182 795
1183 795
1184 795
1185 795
1186 795
1187 795
1188 795
1189 795
1190 795
1191 795
1192 795
1193 795
1194 795
1195 795
1196 795
1197 795
1198 795
1199 795
1200 795
1201 795
1202 795
1203 795
1204 795
1205 795
1206 795
1207 795
1208 795
1209 795
1210 795
1211 795
1212 795
1213 795
1214 795
1215 795
1216 795
1217 795
1174 796
1175 796
1176 796
1177 796
1178 796
1179 796
1180 796
1181 796
1182 796
1183 796
1184 796
1185 796
1186 796
1187 796
1188 796
1189 796
1190 796
1191 796
1192 796
1193 796
1194 796
1195 796
1196 796
1197 796
1198 796
1199 796
1200 796
1201 796
1202 796
1203 796
1204 796
1205 796
1206 796
1207 796
1208 796
1209 796
1210 796
1211 796
1212 796
1213 796
1214 796
1215 796
1216 796
1217 796
1174 797
1175 797
1176 797
1177 797
1178 797
1179 797
1180 797
1181 797
1182 797
1183 797
1184 797
1185 797
1186 797
1187 797
1188 797
1189 797
1190 797
1191 797
1192 797
1193 797
1194 797
1195 797
1196 797
1197 797
1198 797
1199 797
1200 797
1201 797
1202 797
1203 797
1204 797
1205 797
1206 797
1207 797
1208 797
1209 797
1210 797
1211 797
1212 797
1213 797
1214 797
1215 797
1216 797
1217 797
1174 798
1175 798
1176 798
1177 798
1178 798
1179 798
1180 798
1181 798
1182 798
1183 798
1184 798
1185 798
1186 798
1187 798
1188 798
1189 798
1190 798
1191 798
1192 798
1193 798
1194 798
1195 798
1196 798
1197 798
1198 798
1199 798
1200 798
1201 798
1202 798
1203 798
1204 798
1205 798
1206 798
1207 798
1208 798
1209 798
1210 798
1211 798
1212 798
1213 798
1214 798
1215 798
1216 798
1217 798
1174 799
1175 799
1176 799
1177 799
1178 799
1179 799
1180 799
1181 799
1182 799
1183 799
1184 799
1185 799
1186 799
1187 799
1188 799
1189 799
1190 799
1191 799
1192 799
1193 799
1194 799
1195 799
1196 799
1197 799
1198 799
1199 799
1200 799
1201 799
1202 799
1203 799
1204 799
1205 799
1206 799
1207 799
1208 799
1209 799
1210 799
1211 799
1212 799
1213 799
1214 799
1215 799
1216 799
1217 799
1174 800
1175 800
1176 800
1177 800
1178 800
1179 800
1180 800
1181 800
1182 800
1183 800
1184 800
1185 800
1186 800
1187 800
1188 800
1189 800
1190 800
1191 800
1192 800
1193 800
1194 800
1195 800
1196 800
1197 800
1198 800
1199 800
1200 800
1201 800
1202 800
1203 800
1204 800
1205 800
1206 800
1207 800
1208 800
1209 800
1210 800
1211 800
1212 800
1213 800
1214 800
1215 800
1216 800
1217 800
1174 801
1175 801
1176 801
1177 801
1178 801
1179 801
1180 801
1181 801
1182 801
1183 801
1184 801
1185 801
1186 801
1187 801
1188 801
1189 801
1190 801
1191 801
1192 801
1193 801
1194 801
1195 801
1196 801
1197 801
1198 801
1199 801
1200 801
1201 801
1202 801
1203 801
1204 801
1205 801
1206 801
1207 801
1208 801
1209 801
1210 801
1211 801
1212 801
1213 801
1214 801
1215 801
1216 801
1217 801
1174 802
1175 802
1176 802
1177 802
1178 802
1179 802
1180 802
1181 802
1182 802
1183 802
1184 802
1185 802
1186 802
1187 802
1188 802
1189 802
1190 802
1191 802
1192 802
1193 802
1194 802
1195 802
1196 802
1197 802
1198 802
1199 802
1200 802
1201 802
1202 802
1203 802
1204 802
1205 802
1206 802
1207 802
1208 802
1209 802
1210 802
1211 802
1212 802
1213 802
1214 802
1215 802
1216 802
1217 802
1174 803
1175 803
1176 803
1177 803
1178 803
1179 803
1180 803
1181 803
1182 803
1183 803
1184 803
1185 803
1186 803
1187 803
1188 803
1189 803
1190 803
1191 803
1192 803
1193 803
1194 803
1195 803
1196 803
1197 803
1198 803
1199 803
1200 803
1201 803
1202 803
1203 803
1204 803
1205 803
1206 803
1207 803
1208 803
1209 803
1210 803
1211 803
1212 803
1213 803
1214 803
1215 803
1216 803
1217 803
1174 804
1175 804
1176 804
1177 804
1178 804
1179 804
1180 804
1181 804
1182 804
1183 804
1184 804
1185 804
1186 804
1187 804
1188 804
1189 804
1190 804
1191 804
1192 804
1193 804
1194 804
1195 804
1196 804
1197 804
1198 804
1199 804
1200 804
1201 804
1202 804
1203 804
1204 804
1205 804
1206 804
1207 804
1208 804
1209 804
1210 804
1211 804
1212 804
1213 804
1214 804
1215 804
1216 804
1217 804
1174 805
1175 805
1176 805
1177 805
1178 805
1179 805
1180 805
1181 805
1182 805
1183 805
1184 805
1185 805
1186 805
1187 805
1188 805
1189 805
1190 805
1191 805
1192 805
1193 805
1194 805
1195 805
1196 805
1197 805
1198 805
1199 805
1200 805
1201 805
1202 805
1203 805
1204 805
1205 805
1206 805
1207 805
1208 805
1209 805
1210 805
1211 805
1212 805
1213 805
1214 805
1215 805
1216 805
1217 805
1174 806
1175 806
1176 806
1177 806
1178 806
1179 806
1180 806
1181 806
1182 806
1183 806
1184 806
1185 806
1186 806
1187 806
1188 806
1189 806
1190 806
1191 806
1192 806
1193 806
1194 806
1195 806
1196 806
1197 806
1198 806
1199 806
1200 806
1201 806
1202 806
1203 806
1204 806
1205 806
1206 806
1207 806
1208 806
1209 806
1210 806
1211 806
1212 806
1213 806
1214 806
1215 806
1216 806
1217 806
1174 807
1175 807
1176 807
1177 807
1178 807
1179 807
1180 807
1181 807
1182 807
1183 807
1184 807
1185 807
1186 807
1187 807
1188 807
1189 807
1190 807
1191 807
1192 807
1193 807
1194 807
1195 807
1196 807
1197 807
1198 807
1199 807
1200 807
1201 807
1202 807
1203 807
1204 807
1205 807
1206 807
1207 807
1208 807
1209 807
1210 807
1211 807
1212 807
1213 807
1214 807
1215 807
1216 807
1217 807
1174 808
1175 808
1176 808
1177 808
1178 808
1179 808
1180 808
1181 808
1182 808
1183 808
1184 808
1185 808
1186 808
1187 808
1188 808
1189 808
1190 808
1191 808
1192 808
1193 808
1194 808
1195 808
1196 808
1197 808
1198 808
1199 808
1200 808
1201 808
1202 808
1203 808
1204 808
1205 808
1206 808
1207 808
1208 808
1209 808
1210 808
1211 808
1212 808
1213 808
1214 808
1215 808
1216 808
1217 808
1174 809
1175 809
1176 809
1177 809
1178 809
1179 809
1180 809
1181 809
1182 809
1183 809
1184 809
1185 809
1186 809
1187 809
1188 809
1189 809
1190 809
1191 809
1192 809
1193 809
1194 809
1195 809
1196 809
1197 809
1198 809
1199 809
1200 809
1201 809
1202 809
1203 809
1204 809
1205 809
1206 809
1207 809
1208 809
1209 809
1210 809
1211 809
1212 809
1213 809
1214 809
1215 809
1216 809
1217 809
1174 810
1175 810
1176 810
1177 810
1178 810
1179 810
1180 810
1181 810
1182 810
1183 810
1184 810
1185 810
1186 810
1187 810
1188 810
1189 810
1190 810
1191 810
1192 810
1193 810
1194 810
1195 810
1196 810
1197 810
1198 810
1199 810
1200 810
1201 810
1202 810
1203 810
1204 810
1205 810
1206 810
1207 810
1208 810
1209 810
1210 810
1211 810
1212 810
1213 810
1214 810
1215 810
1216 810
1217 810
1174 811
1175 811
1176 811
1177 811
1178 811
1179 811
1180 811
1181 811
1182 811
1183 811
1184 811
1185 811
1186 811
1187 811
1188 811
1189 811
1190 811
1191 811
1192 811
1193 811
1194 811
1195 811
1196 811
1197 811
1198 811
1199 811
1200 811
1201 811
1202 811
1203 811
1204 811
1205 811
1206 811
1207 811
1208 811
1209 811
1210 811
1211 811
1212 811
1213 811
1214 811
1215 811
1216 811
1217 811
1174 812
1175 812
1176 812
1177 812
1178 812
1179 812
1180 812
1181 812
1182 812
1183 812
1184 812
1185 812
1186 812
1187 812
1188 812
1189 812
1190 812
1191 812
1192 812
1193 812
1194 812
1195 812
1196 812
1197 812
1198 812
1199 812
1200 812
1201 812
1202 812
1203 812
1204 812
1205 812
1206 812
1207 812
1208 812
1209 812
1210 812
1211 812
1212 812
1213 812
1214 812
1215 812
1216 812
1217 812
1174 813
1175 813
1176 813
1177 813
1178 813
1179 813
1180 813
1181 813
1182 813
1183 813
1184 813
1185 813
1186 813
1187 813
1188 813
1189 813
1190 813
1191 813
1192 813
1193 813
1194 813
1195 813
1196 813
1197 813
1198 813
1199 813
1200 813
1201 813
1202 813
1203 813
1204 813
1205 813
1206 813
1207 813
1208 813
1209 813
1210 813
1211 813
1212 813
1213 813
1214 813
1215 813
1216 813
1217 813
1174 814
1175 814
1176 814
1177 814
1178 814
1179 814
1180 814
1181 814
1182 814
1183 814
1184 814
1185 814
1186 814
1187 814
1188 814
1189 814
1190 814
1191 814
1192 814
1193 814
1194 814
1195 814
1196 814
1197 814
1198 814
1199 814
1200 814
1201 814
1202 814
1203 814
1204 814
1205 814
1206 814
1207 814
1208 814
1209 814
1210 814
1211 814
1212 814
1213 814
1214 814
1215 814
1216 814
1217 814
1174 815
1175 815
1176 815
1177 815
1178 815
1179 815
1180 815
1181 815
1182 815
1183 815
1184 815
1185 815
1186 815
1187 815
1188 815
1189 815
1190 815
1191 815
1192 815
1193 815
1194 815
1195 815
1196 815
1197 815
1198 815
1199 815
1200 815
1201 815
1202 815
1203 815
1204 815
1205 815
1206 815
1207 815
1208 815
1209 815
1210 815
1211 815
1212 815
1213 815
1214 815
1215 815
1216 815
1217 815
1174 816
1175 816
1176 816
1177 816
1178 816
1179 816
1180 816
1181 816
1182 816
1183 816
1184 816
1185 816
1186 816
1187 816
1188 816
1189 816
1190 816
1191 816
1192 816
1193 816
1194 816
1195 816
1196 816
1197 816
1198 816
1199 816
1200 816
1201 816
1202 816
1203 816
1204 816
1205 816
1206 816
1207 816
1208 816
1209 816
1210 816
1211 816
1212 816
1213 816
1214 816
1215 816
1216 816
1217 816
1174 817
1175 817
1176 817
1177 817
1178 817
1179 817
1180 817
1181 817
1182 817
1183 817
1184 817
1185 817
1186 817
1187 817
1188 817
1189 817
1190 817
1191 817
1192 817
1193 817
1194 817
1195 817
1196 817
1197 817
1198 817
1199 817
1200 817
1201 817
1202 817
1203 817
1204 817
1205 817
1206 817
1207 817
1208 817
1209 817
1210 817
1211 817
1212 817
1213 817
1214 817
1215 817
1216 817
1217 817
1174 818
1175 818
1176 818
1177 818
1178 818
1179 818
1180 818
1181 818
1182 818
1183 818
1184 818
1185 818
1186 818
1187 818
1188 818
1189 818
1190 818
1191 818
1192 818
1193 818
1194 818
1195 818
1196 818
1197 818
1198 818
1199 818
1200 818
1201 818
1202 818
1203 818
1204 818
1205 818
1206 818
1207 818
1208 818
1209 818
1210 818
1211 818
1212 818
1213 818
1214 818
1215 818
1216 818
1217 818
1174 819
1175 819
1176 819
1177 819
1178 819
1179 819
1180 819
1181 819
1182 819
1183 819
1184 819
1185 819
1186 819
1187 819
1188 819
1189 819
1190 819
1191 819
1192 819
1193 819
1194 819
1195 819
1196 819
1197 819
1198 819
1199 819
1200 819
1201 819
1202 819
1203 819
1204 819
1205 819
1206 819
1207 819
1208 819
1209 819
1210 819
1211 819
1212 819
1213 819
1214 819
1215 819
1216 819
1217 819
1174 820
1175 820
1176 820
1177 820
1178 820
1179 820
1180 820
1181 820
1182 820
1183 820
1184 820
1185 820
1186 820
1187 820
1188 820
1189 820
1190 820
1191 820
1192 820
1193 820
1194 820
1195 820
1196 820
1197 820
1198 820
1199 820
1200 820
1201 820
1202 820
1203 820
1204 820
1205 820
1206 820
1207 820
1208 820
1209 820
1210 820
1211 820
1212 820
1213 820
1214 820
1215 820
1216 820
1217 820
1174 821
1175 821
1176 821
1177 821
1178 821
1179 821
1180 821
1181 821
1182 821
1183 821
1184 821
1185 821
1186 821
1187 821
1188 821
1189 821
1190 821
1191 821
1192 821
1193 821
1194 821
1195 821
1196 821
1197 821
1198 821
1199 821
1200 821
1201 821
1202 821
1203 821
1204 821
1205 821
1206 821
1207 821
1208 821
1209 821
1210 821
1211 821
1212 821
1213 821
1214 821
1215 821
1216 821
1217 821
1294 859
1295 859
1296 859
1297 859
1298 859
1299 859
1300 859
1301 859
1302 859
1303 859
1304 859
1305 859
1306 859
1307 859
1308 859
1309 859
1310 859
1311 859
1312 859
1313 859
1314 859
1315 859
1316 859
1317 859
1318 859
1319 859
1320 859
1321 859
1322 859
1323 859
1324 859
1325 859
1326 859
1327 859
1328 859
1329 859
1330 859
1331 859
1332 859
1333 859
1334 859
1335 859
1336 859
1337 859
1294 860
1295 860
1296 860
1297 860
1298 860
1299 860
1300 860
1301 860
1302 860
1303 860
1304 860
1305 860
1306 860
1307 860
1308 860
1309 860
1310 860
1311 860
1312 860
1313 860
1314 860
1315 860
1316 860
1317 860
1318 860
1319 860
1320 860
1321 860
1322 860
1323 860
1324 860
1325 860
1326 860
1327 860
1328 860
1329 860
1330 860
1331 860
1332 860
1333 860
1334 860
1335 860
1336 860
1337 860
1294 861
1295 861
1296 861
1297 861
1298 861
1299 861
1300 861
1301 861
1302 861
1303 861
1304 861
1305 861
1306 861
1307 861
1308 861
1309 861
1310 861
1311 861
1312 861
1313 861
1314 861
1315 861
1316 861
1317 861
1318 861
1319 861
1320 861
1321 861
1322 861
1323 861
1324 861
1325 861
1326 861
1327 861
1328 861
1329 861
1330 861
1331 861
1332 861
1333 861
1334 861
1335 861
1336 861
1337 861
1294 862
1295 862
1296 862
1297 862
1298 862
1299 862
1300 862
1301 862
1302 862
1303 862
1304 862
1305 862
1306 862
1307 862
1308 862
1309 862
1310 862
1311 862
1312 862
1313 862
1314 862
1315 862
1316 862
1317 862
1318 862
1319 862
1320 862
1321 862
1322 862
1323 862
1324 862
1325 862
1326 862
1327 862
1328 862
1329 862
1330 862
1331 862
1332 862
1333 862
1334 862
1335 862
1336 862
1337 862
1294 863
1295 863
1296 863
1297 863
1298 863
1299 863
1300 863
1301 863
1302 863
1303 863
1304 863
1305 863
1306 863
1307 863
1308 863
1309 863
1310 863
1311 863
1312 863
1313 863
1314 863
1315 863
1316 863
1317 863
1318 863
1319 863
1320 863
1321 863
1322 863
1323 863
1324 863
1325 863
1326 863
1327 863
1328 863
1329 863
1330 863
1331 863
1332 863
1333 863
1334 863
1335 863
1336 863
1337 863
1294 864
1295 864
1296 864
1297 864
1298 864
1299 864
1300 864
1301 864
1302 864
1303 864
1304 864
1305 864
1306 864
1307 864
1308 864
1309 864
1310 864
1311 864
1312 864
1313 864
1314 864
1315 864
1316 864
1317 864
1318 864
1319 864
1320 864
1321 864
1322 864
1323 864
1324 864
1325 864
1326 864
1327 864
1328 864
1329 864
1330 864
1331 864
1332 864
1333 864
1334 864
1335 864
1336 864
1337 864
1294 865
1295 865
1296 865
1297 865
1298 865
1299 865
1300 865
1301 865
1302 865
1303 865
1304 865
1305 865
1306 865
1307 865
1308 865
1309 865
1310 865
1311 865
1312 865
1313 865
1314 865
1315 865
1316 865
1317 865
1318 865
1319 865
1320 865
1321 865
1322 865
1323 865
1324 865
1325 865
1326 865
1327 865
1328 865
1329 865
1330 865
1331 865
1332 865
1333 865
1334 865
1335 865
1336 865
1337 865
1294 866
1295 866
1296 866
1297 866
1298 866
1299 866
1300 866
1301 866
1302 866
1303 866
1304 866
1305 866
1306 866
1307 866
1308 866
1309 866
1310 866
1311 866
1312 866
1313 866
1314 866
1315 866
1316 866
1317 866
1318 866
1319 866
1320 866
1321 866
1322 866
1323 866
1324 866
1325 866
1326 866
1327 866
1328 866
1329 866
1330 866
1331 866
1332 866
1333 866
1334 866
1335 866
1336 866
1337 866
1294 867
1295 867
1296 867
1297 867
1298 867
1299 867
1300 867
1301 867
1302 867
1303 867
1304 867
1305 867
1306 867
1307 867
1308 867
1309 867
1310 867
1311 867
1312 867
1313 867
1314 867
1315 867
1316 867
1317 867
1318 867
1319 867
1320 867
1321 867
1322 867
1323 867
1324 867
1325 867
1326 867
1327 867
1328 867
1329 867
1330 867
1331 867
1332 867
1333 867
1334 867
1335 867
1336 867
1337 867
1294 868
1295 868
1296 868
1297 868
1298 868
1299 868
1300 868
1301 868
1302 868
1303 868
1304 868
1305 868
1306 868
1307 868
1308 868
1309 868
1310 868
1311 868
1312 868
1313 868
1314 868
1315 868
1316 868
1317 868
1318 868
1319 868
1320 868
1321 868
1322 868
1323 868
1324 868
1325 868
1326 868
1327 868
1328 868
1329 868
1330 868
1331 868
1332 868
1333 868
1334 868
1335 868
1336 868
1337 868
1294 869
1295 869
1296 869
1297 869
1298 869
1299 869
1300 869
1301 869
1302 869
1303 869
1304 869
1305 869
1306 869
1307 869
1308 869
1309 869
1310 869
1311 869
1312 869
1313 869
1314 869
1315 869
1316 869
1317 869
1318 869
1319 869
1320 869
1321 869
1322 869
1323 869
1324 869
1325 869
1326 869
1327 869
1328 869
1329 869
1330 869
1331 869
1332 869
1333 869
1334 869
1335 869
1336 869
1337 869
1294 870
1295 870
1296 870
1297 870
1298 870
1299 870
1300 870
1301 870
1302 870
1303 870
1304 870
1305 870
1306 870
1307 870
1308 870
1309 870
1310 870
1311 870
1312 870
1313 870
1314 870
1315 870
1316 870
1317 870
1318 870
1319 870
1320 870
1321 870
1322 870
1323 870
1324 870
1325 870
1326 870
1327 870
1328 870
1329 870
1330 870
1331 870
1332 870
1333 870
1334 870
1335 870
1336 870
1337 870
1294 871
1295 871
1296 871
1297 871
1298 871
1299 871
1300 871
1301 871
1302 871
1303 871
1304 871
1305 871
1306 871
1307 871
1308 871
1309 871
1310 871
1311 871
1312 871
1313 871
1314 871
1315 871
1316 871
1317 871
1318 871
1319 871
1320 871
1321 871
1322 871
1323 871
1324 871
1325 871
1326 871
1327 871
1328 871
1329 871
1330 871
1331 871
1332 871
1333 871
1334 871
1335 871
1336 871
1337 871
1294 872
1295 872
1296 872
1297 872
1298 872
1299 872
1300 872
1301 872
1302 872
1303 872
1304 872
1305 872
1306 872
1307 872
1308 872
1309 872
1310 872
1311 872
1312 872
1313 872
1314 872
1315 872
1316 872
1317 872
1318 872
1319 872
1320 872
1321 872
1322 872
1323 872
1324 872
1325 872
1326 872
1327 872
1328 872
1329 872
1330 872
1331 872
1332 872
1333 872
1334 872
1335 872
1336 872
1337 872
1294 873
1295 873
1296 873
1297 873
1298 873
1299 873
1300 873
1301 873
1302 873
1303 873
1304 873
1305 873
1306 873
1307 873
1308 873
1309 873
1310 873
1311 873
1312 873
1313 873
1314 873
1315 873
1316 873
1317 873
1318 873
1319 873
1320 873
1321 873
1322 873
1323 873
1324 873
1325 873
1326 873
1327 873
1328 873
1329 873
1330 873
1331 873
1332 873
1333 873
1334 873
1335 873
1336 873
1337 873
1294 874
1295 874
1296 874
1297 874
1298 874
1299 874
1300 874
1301 874
1302 874
1303 874
1304 874
1305 874
1306 874
1307 874
1308 874
1309 874
1310 874
1311 874
1312 874
1313 874
1314 874
1315 874
1316 874
1317 874
1318 874
1319 874
1320 874
1321 874
1322 874
1323 874
1324 874
1325 874
1326 874
1327 874
1328 874
1329 874
1330 874
1331 874
1332 874
1333 874
1334 874
1335 874
1336 874
1337 874
1294 875
1295 875
1296 875
1297 875
1298 875
1299 875
1300 875
1301 875
1302 875
1303 875
1304 875
1305 875
1306 875
1307 875
1308 875
1309 875
1310 875
1311 875
1312 875
1313 875
1314 875
1315 875
1316 875
1317 875
1318 875
1319 875
1320 875
1321 875
1322 875
1323 875
1324 875
1325 875
1326 875
1327 875
1328 875
1329 875
1330 875
1331 875
1332 875
1333 875
1334 875
1335 875
1336 875
1337 875
1294 876
1295 876
1296 876
1297 876
1298 876
1299 876
1300 876
1301 876
1302 876
1303 876
1304 876
1305 876
1306 876
1307 876
1308 876
1309 876
1310 876
1311 876
1312 876
1313 876
1314 876
1315 876
1316 876
1317 876
1318 876
1319 876
1320 876
1321 876
1322 876
1323 876
1324 876
1325 876
1326 876
1327 876
1328 876
1329 876
1330 876
1331 876
1332 876
1333 876
1334 876
1335 876
1336 876
1337 876
1294 877
1295 877
1296 877
1297 877
1298 877
1299 877
1300 877
1301 877
1302 877
1303 877
1304 877
1305 877
1306 877
1307 877
1308 877
1309 877
1310 877
1311 877
1312 877
1313 877
1314 877
1315 877
1316 877
1317 877
1318 877
1319 877
1320 877
1321 877
1322 877
1323 877
1324 877
1325 877
1326 877
1327 877
1328 877
1329 877
1330 877
1331 877
1332 877
1333 877
1334 877
1335 877
1336 877
1337 877
1294 878
1295 878
1296 878
1297 878
1298 878
1299 878
1300 878
1301 878
1302 878
1303 878
1304 878
1305 878
1306 878
1307 878
1308 878
1309 878
1310 878
1311 878
1312 878
1313 878
1314 878
1315 878
1316 878
1317 878
1318 878
1319 878
1320 878
1321 878
1322 878
1323 878
1324 878
1325 878
1326 878
1327 878
1328 878
1329 878
1330 878
1331 878
1332 878
1333 878
1334 878
1335 878
1336 878
1337 878
1294 879
1295 879
1296 879
1297 879
1298 879
1299 879
1300 879
1301 879
1302 879
1303 879
1304 879
1305 879
1306 879
1307 879
1308 879
1309 879
1310 879
1311 879
1312 879
1313 879
1314 879
1315 879
1316 879
1317 879
1318 879
1319 879
1320 879
1321 879
1322 879
1323 879
1324 879
1325 879
1326 879
1327 879
1328 879
1329 879
1330 879
1331 879
1332 879
1333 879
1334 879
1335 879
1336 879
1337 879
1294 880
1295 880
1296 880
1297 880
1298 880
1299 880
1300 880
1301 880
1302 880
1303 880
1304 880
1305 880
1306 880
1307 880
1308 880
1309 880
1310 880
1311 880
1312 880
1313 880
1314 880
1315 880
1316 880
1317 880
1318 880
1319 880
1320 880
1321 880
1322 880
1323 880
1324 880
1325 880
1326 880
1327 880
1328 880
1329 880
1330 880
1331 880
1332 880
1333 880
1334 880
1335 880
1336 880
1337 880
1294 881
1295 881
1296 881
1297 881
1298 881
1299 881
1300 881
1301 881
1302 881
1303 881
1304 881
1305 881
1306 881
1307 881
1308 881
1309 881
1310 881
1311 881
1312 881
1313 881
1314 881
1315 881
1316 881
1317 881
1318 881
1319 881
1320 881
1321 881
1322 881
1323 881
1324 881
1325 881
1326 881
1327 881
1328 881
1329 881
1330 881
1331 881
1332 881
1333 881
1334 881
1335 881
1336 881
1337 881
1294 882
1295 882
1296 882
1297 882
1298 882
1299 882
1300 882
1301 882
1302 882
1303 882
1304 882
1305 882
1306 882
1307 882
1308 882
1309 882
1310 882
1311 882
1312 882
1313 882
1314 882
1315 882
1316 882
1317 882
1318 882
1319 882
1320 882
1321 882
1322 882
1323 882
1324 882
1325 882
1326 882
1327 882
1328 882
1329 882
1330 882
1331 882
1332 882
1333 882
1334 882
1335 882
1336 882
1337 882
1294 883
1295 883
1296 883
1297 883
1298 883
1299 883
1300 883
1301 883
1302 883
1303 883
1304 883
1305 883
1306 883
1307 883
1308 883
1309 883
1310 883
1311 883
1312 883
1313 883
1314 883
1315 883
1316 883
1317 883
1318 883
1319 883
1320 883
1321 883
1322 883
1323 883
1324 883
1325 883
1326 883
1327 883
1328 883
1329 883
1330 883
1331 883
1332 883
1333 883
1334 883
1335 883
1336 883
1337 883
1294 884
1295 884
1296 884
1297 884
1298 884
1299 884
1300 884
1301 884
1302 884
1303 884
1304 884
1305 884
1306 884
1307 884
1308 884
1309 884
1310 884
1311 884
1312 884
1313 884
1314 884
1315 884
1316 884
1317 884
1318 884
1319 884
1320 884
1321 884
1322 884
1323 884
1324 884
1325 884
1326 884
1327 884
1328 884
1329 884
1330 884
1331 884
1332 884
1333 884
1334 884
1335 884
1336 884
1337 884
1294 885
1295 885
1296 885
1297 885
1298 885
1299 885
1300 885
1301 885
1302 885
1303 885
1304 885
1305 885
1306 885
1307 885
1308 885
1309 885
1310 885
1311 885
1312 885
1313 885
1314 885
1315 885
1316 885
1317 885
1318 885
1319 885
1320 885
1321 885
1322 885
1323 885
1324 885
1325 885
1326 885
1327 885
1328 885
1329 885
1330 885
1331 885
1332 885
1333 885
1334 885
1335 885
1336 885
1337 885
1294 886
1295 886
1296 886
1297 886
1298 886
1299 886
1300 886
1301 886
1302 886
1303 886
1304 886
1305 886
1306 886
1307 886
1308 886
1309 886
1310 886
1311 886
1312 886
1313 886
1314 886
1315 886
1316 886
1317 886
1318 886
1319 886
1320 886
1321 886
1322 886
1323 886
1324 886
1325 886
1326 886
1327 886
1328 886
1329 886
1330 886
1331 886
1332 886
1333 886
1334 886
1335 886
1336 886
1337 886
1294 887
1295 887
1296 887
1297 887
1298 887
1299 887
1300 887
1301 887
1302 887
1303 887
1304 887
1305 887
1306 887
1307 887
1308 887
1309 887
1310 887
1311 887
1312 887
1313 887
1314 887
1315 887
1316 887
1317 887
1318 887
1319 887
1320 887
1321 887
1322 887
1323 887
1324 887
1325 887
1326 887
1327 887
1328 887
1329 887
1330 887
1331 887
1332 887
1333 887
1334 887
1335 887
1336 887
1337 887
1294 888
1295 888
1296 888
1297 888
1298 888
1299 888
1300 888
1301 888
1302 888
1303 888
1304 888
1305 888
1306 888
1307 888
1308 888
1309 888
1310 888
1311 888
1312 888
1313 888
1314 888
1315 888
1316 888
1317 888
1318 888
1319 888
1320 888
1321 888
1322 888
1323 888
1324 888
1325 888
1326 888
1327 888
1328 888
1329 888
1330 888
1331 888
1332 888
1333 888
1334 888
1335 888
1336 888
1337 888
1294 889
1295 889
1296 889
1297 889
1298 889
1299 889
1300 889
1301 889
1302 889
1303 889
1304 889
1305 889
1306 889
1307 889
1308 889
1309 889
1310 889
1311 889
1312 889
1313 889
1314 889
1315 889
1316 889
1317 889
1318 889
1319 889
1320 889
1321 889
1322 889
1323 889
1324 889
1325 889
1326 889
1327 889
1328 889
1329 889
1330 889
1331 889
1332 889
1333 889
1334 889
1335 889
1336 889
1337 889
1294 890
1295 890
1296 890
1297 890
1298 890
1299 890
1300 890
1301 890
1302 890
1303 890
1304 890
1305 890
1306 890
1307 890
1308 890
1309 890
1310 890
1311 890
1312 890
1313 890
1314 890
1315 890
1316 890
1317 890
1318 890
1319 890
1320 890
1321 890
1322 890
1323 890
1324 890
1325 890
1326 890
1327 890
1328 890
1329 890
1330 890
1331 890
1332 890
1333 890
1334 890
1335 890
1336 890
1337 890
1294 891
1295 891
1296 891
1297 891
1298 891
1299 891
1300 891
1301 891
1302 891
1303 891
1304 891
1305 891
1306 891
1307 891
1308 891
1309 891
1310 891
1311 891
1312 891
1313 891
1314 891
1315 891
1316 891
1317 891
1318 891
1319 891
1320 891
1321 891
1322 891
1323 891
1324 891
1325 891
1326 891
1327 891
1328 891
1329 891
1330 891
1331 891
1332 891
1333 891
1334 891
1335 891
1336 891
1337 891
1294 892
1295 892
1296 892
1297 892
1298 892
1299 892
1300 892
1301 892
1302 892
1303 892
1304 892
1305 892
1306 892
1307 892
1308 892
1309 892
1310 892
1311 892
1312 892
1313 892
1314 892
1315 892
1316 892
1317 892
1318 892
1319 892
1320 892
1321 892
1322 892
1323 892
1324 892
1325 892
1326 892
1327 892
1328 892
1329 892
1330 892
1331 892
1332 892
1333 892
1334 892
1335 892
1336 892
1337 892
1294 893
1295 893
1296 893
1297 893
1298 893
1299 893
1300 893
1301 893
1302 893
1303 893
1304 893
1305 893
1306 893
1307 893
1308 893
1309 893
1310 893
1311 893
1312 893
1313 893
1314 893
1315 893
1316 893
1317 893
1318 893
1319 893
1320 893
1321 893
1322 893
1323 893
1324 893
1325 893
1326 893
1327 893
1328 893
1329 893
1330 893
1331 893
1332 893
1333 893
1334 893
1335 893
1336 893
1337 893
1294 894
1295 894
1296 894
1297 894
1298 894
1299 894
1300 894
1301 894
1302 894
1303 894
1304 894
1305 894
1306 894
1307 894
1308 894
1309 894
1310 894
1311 894
1312 894
1313 894
1314 894
1315 894
1316 894
1317 894
1318 894
1319 894
1320 894
1321 894
1322 894
1323 894
1324 894
1325 894
1326 894
1327 894
1328 894
1329 894
1330 894
1331 894
1332 894
1333 894
1334 894
1335 894
1336 894
1337 894
1294 895
1295 895
1296 895
1297 895
1298 895
1299 895
1300 895
1301 895
1302 895
1303 895
1304 895
1305 895
1306 895
1307 895
1308 895
1309 895
1310 895
1311 895
1312 895
1313 895
1314 895
1315 895
1316 895
1317 895
1318 895
1319 895
1320 895
1321 895
1322 895
1323 895
1324 895
1325 895
1326 895
1327 895
1328 895
1329 895
1330 895
1331 895
1332 895
1333 895
1334 895
1335 895
1336 895
1337 895
1294 896
1295 896
1296 896
1297 896
1298 896
1299 896
1300 896
1301 896
1302 896
1303 896
1304 896
1305 896
1306 896
1307 896
1308 896
1309 896
1310 896
1311 896
1312 896
1313 896
1314 896
1315 896
1316 896
1317 896
1318 896
1319 896
1320 896
1321 896
1322 896
1323 896
1324 896
1325 896
1326 896
1327 896
1328 896
1329 896
1330 896
1331 896
1332 896
1333 896
1334 896
1335 896
1336 896
1337 896
1294 897
1295 897
1296 897
1297 897
1298 897
1299 897
1300 897
1301 897
1302 897
1303 897
1304 897
1305 897
1306 897
1307 897
1308 897
1309 897
1310 897
1311 897
1312 897
1313 897
1314 897
1315 897
1316 897
1317 897
1318 897
1319 897
1320 897
1321 897
1322 897
1323 897
1324 897
1325 897
1326 897
1327 897
1328 897
1329 897
1330 897
1331 897
1332 897
1333 897
1334 897
1335 897
1336 897
1337 897
1294 898
1295 898
1296 898
1297 898
1298 898
1299 898
1300 898
1301 898
1302 898
1303 898
1304 898
1305 898
1306 898
1307 898
1308 898
1309 898
1310 898
1311 898
1312 898
1313 898
1314 898
1315 898
1316 898
1317 898
1318 898
1319 898
1320 898
1321 898
1322 898
1323 898
1324 898
1325 898
1326 898
1327 898
1328 898
1329 898
1330 898
1331 898
1332 898
1333 898
1334 898
1335 898
1336 898
1337 898
1294 899
1295 899
1296 899
1297 899
1298 899
1299 899
1300 899
1301 899
1302 899
1303 899
1304 899
1305 899
1306 899
1307 899
1308 899
1309 899
1310 899
1311 899
1312 899
1313 899
1314 899
1315 899
1316 899
1317 899
1318 899
1319 899
1320 899
1321 899
1322 899
1323 899
1324 899
1325 899
1326 899
1327 899
1328 899
1329 899
1330 899
1331 899
1332 899
1333 899
1334 899
1335 899
1336 899
1337 899
1294 900
1295 900
1296 900
1297 900
1298 900
1299 900
1300 900
1301 900
1302 900
1303 900
1304 900
1305 900
1306 900
1307 900
1308 900
1309 900
1310 900
1311 900
1312 900
1313 900
1314 900
1315 900
1316 900
1317 900
1318 900
1319 900
1320 900
1321 900
1322 900
1323 900
1324 900
1325 900
1326 900
1327 900
1328 900
1329 900
1330 900
1331 900
1332 900
1333 900
1334 900
1335 900
1336 900
1337 900
1294 901
1295 901
1296 901
1297 901
1298 901
1299 901
1300 901
1301 901
1302 901
1303 901
1304 901
1305 901
1306 901
1307 901
1308 901
1309 901
1310 901
1311 901
1312 901
1313 901
1314 901
1315 901
1316 901
1317 901
1318 901
1319 901
1320 901
1321 901
1322 901
1323 901
1324 901
1325 901
1326 901
1327 901
1328 901
1329 901
1330 901
1331 901
1332 901
1333 901
1334 901
1335 901
1336 901
1337 901
1294 902
1295 902
1296 902
1297 902
1298 902
1299 902
1300 902
1301 902
1302 902
1303 902
1304 902
1305 902
1306 902
1307 902
1308 902
1309 902
1310 902
1311 902
1312 902
1313 902
1314 902
1315 902
1316 902
1317 902
1318 902
1319 902
1320 902
1321 902
1322 902
1323 902
1324 902
1325 902
1326 902
1327 902
1328 902
1329 902
1330 902
1331 902
1332 902
1333 902
1334 902
1335 902
1336 902
1337 902
1414 940
1415 940
1416 940
1417 940
1418 940
1419 940
1420 940
1421 940
1422 940
1423 940
1424 940
1425 940
1426 940
1427 940
1428 940
1429 940
1430 940
1431 940
1432 940
1433 940
1434 940
1435 940
1436 940
1437 940
1438 940
1439 940
1440 940
1441 940
1442 940
1443 940
1444 940
1445 940
1446 940
1447 940
1448 940
1449 940
1450 940
1451 940
1452 940
1453 940
1454 940
1455 940
1456 940
1457 940
1414 941
1415 941
1416 941
1417 941
1418 941
1419 941
1420 941
1421 941
1422 941
1423 941
1424 941
1425 941
1426 941
1427 941
1428 941
1429 941
1430 941
1431 941
1432 941
1433 941
1434 941
1435 941
1436 941
1437 941
1438 941
1439 941
1440 941
1441 941
1442 941
1443 941
1444 941
1445 941
1446 941
1447 941
1448 941
1449 941
1450 941
1451 941
1452 941
1453 941
1454 941
1455 941
1456 941
1457 941
1414 942
1415 942
1416 942
1417 942
1418 942
1419 942
1420 942
1421 942
1422 942
1423 942
1424 942
1425 942
1426 942
1427 942
1428 942
1429 942
1430 942
1431 942
1432 942
1433 942
1434 942
1435 942
1436 942
1437 942
1438 942
1439 942
1440 942
1441 942
1442 942
1443 942
1444 942
1445 942
1446 942
1447 942
1448 942
1449 942
1450 942
1451 942
1452 942
1453 942
1454 942
1455 942
1456 942
1457 942
1414 943
1415 943
1416 943
1417 943
1418 943
1419 943
1420 943
1421 943
1422 943
1423 943
1424 943
1425 943
1426 943
1427 943
1428 943
1429 943
1430 943
1431 943
1432 943
1433 943
1434 943
1435 943
1436 943
1437 943
1438 943
1439 943
1440 943
1441 943
1442 943
1443 943
1444 943
1445 943
1446 943
1447 943
1448 943
1449 943
1450 943
1451 943
1452 943
1453 943
1454 943
1455 943
1456 943
1457 943
1414 944
1415 944
1416 944
1417 944
1418 944
1419 944
1420 944
1421 944
1422 944
1423 944
1424 944
1425 944
1426 944
1427 944
1428 944
1429 944
1430 944
1431 944
1432 944
1433 944
1434 944
1435 944
1436 944
1437 944
1438 944
1439 944
1440 944
1441 944
1442 944
1443 944
1444 944
1445 944
1446 944
1447 944
1448 944
1449 944
1450 944
1451 944
1452 944
1453 944
1454 944
1455 944
1456 944
1457 944
1414 945
1415 945
1416 945
1417 945
1418 945
1419 945
1420 945
1421 945
1422 945
1423 945
1424 945
1425 945
1426 945
1427 945
1428 945
1429 945
1430 945
1431 945
1432 945
1433 945
1434 945
1435 945
1436 945
1437 945
1438 945
1439 945
1440 945
1441 945
1442 945
1443 945
1444 945
1445 945
1446 945
1447 945
1448 945
1449 945
1450 945
1451 945
1452 945
1453 945
1454 945
1455 945
1456 945
1457 945
1414 946
1415 946
1416 946
1417 946
1418 946
1419 946
1420 946
1421 946
1422 946
1423 946
1424 946
1425 946
1426 946
1427 946
1428 946
1429 946
1430 946
1431 946
1432 946
1433 946
1434 946
1435 946
1436 946
1437 946
1438 946
1439 946
1440 946
1441 946
1442 946
1443 946
1444 946
1445 946
1446 946
1447 946
1448 946
1449 946
1450 946
1451 946
1452 946
1453 946
1454 946
1455 946
1456 946
1457 946
1414 947
1415 947
1416 947
1417 947
1418 947
1419 947
1420 947
1421 947
1422 947
1423 947
1424 947
1425 947
1426 947
1427 947
1428 947
1429 947
1430 947
1431 947
1432 947
1433 947
1434 947
1435 947
1436 947
1437 947
1438 947
1439 947
1440 947
1441 947
1442 947
1443 947
1444 947
1445 947
1446 947
1447 947
1448 947
1449 947
1450 947
1451 947
1452 947
1453 947
1454 947
1455 947
1456 947
1457 947
1414 948
1415 948
1416 948
1417 948
1418 948
1419 948
1420 948
1421 948
1422 948
1423 948
1424 948
1425 948
1426 948
1427 948
1428 948
1429 948
1430 948
1431 948
1432 948
1433 948
1434 948
1435 948
1436 948
1437 948
1438 948
1439 948
1440 948
1441 948
1442 948
1443 948
1444 948
1445 948
1446 948
1447 948
1448 948
1449 948
1450 948
1451 948
1452 948
1453 948
1454 948
1455 948
1456 948
1457 948
1414 949
1415 949
1416 949
1417 949
1418 949
1419 949
1420 949
1421 949
1422 949
1423 949
1424 949
1425 949
1426 949
1427 949
1428 949
1429 949
1430 949
1431 949
1432 949
1433 949
1434 949
1435 949
1436 949
1437 949
1438 949
1439 949
1440 949
1441 949
1442 949
1443 949
1444 949
1445 949
1446 949
1447 949
1448 949
1449 949
1450 949
1451 949
1452 949
1453 949
1454 949
1455 949
1456 949
1457 949
1414 950
1415 950
1416 950
1417 950
1418 950
1419 950
1420 950
1421 950
1422 950
1423 950
1424 950
1425 950
1426 950
1427 950
1428 950
1429 950
1430 950
1431 950
1432 950
1433 950
1434 950
1435 950
1436 950
1437 950
1438 950
1439 950
1440 950
1441 950
1442 950
1443 950
1444 950
1445 950
1446 950
1447 950
1448 950
1449 950
1450 950
1451 950
1452 950
1453 950
1454 950
1455 950
1456 950
1457 950
1414 951
1415 951
1416 951
1417 951
1418 951
1419 951
1420 951
1421 951
1422 951
1423 951
1424 951
1425 951
1426 951
1427 951
1428 951
1429 951
1430 951
1431 951
1432 951
1433 951
1434 951
1435 951
1436 951
1437 951
1438 951
1439 951
1440 951
1441 951
1442 951
1443 951
1444 951
1445 951
1446 951
1447 951
1448 951
1449 951
1450 951
1451 951
1452 951
1453 951
1454 951
1455 951
1456 951
1457 951
1414 952
1415 952
1416 952
1417 952
1418 952
1419 952
1420 952
1421 952
1422 952
1423 952
1424 952
1425 952
1426 952
1427 952
1428 952
1429 952
1430 952
1431 952
1432 952
1433 952
1434 952
1435 952
1436 952
1437 952
1438 952
1439 952
1440 952
1441 952
1442 952
1443 952
1444 952
1445 952
1446 952
1447 952
1448 952
1449 952
1450 952
1451 952
1452 952
1453 952
1454 952
1455 952
1456 952
1457 952
1414 953
1415 953
1416 953
1417 953
1418 953
1419 953
1420 953
1421 953
1422 953
1423 953
1424 953
1425 953
1426 953
1427 953
1428 953
1429 953
1430 953
1431 953
1432 953
1433 953
1434 953
1435 953
1436 953
1437 953
1438 953
1439 953
1440 953
1441 953
1442 953
1443 953
1444 953
1445 953
1446 953
1447 953
1448 953
1449 953
1450 953
1451 953
1452 953
1453 953
1454 953
1455 953
1456 953
1457 953
1414 954
1415 954
1416 954
1417 954
1418 954
1419 954
1420 954
1421 954
1422 954
1423 954
1424 954
1425 954
1426 954
1427 954
1428 954
1429 954
1430 954
1431 954
1432 954
1433 954
1434 954
1435 954
1436 954
1437 954
1438 954
1439 954
1440 954
1441 954
1442 954
1443 954
1444 954
1445 954
1446 954
1447 954
1448 954
1449 954
1450 954
1451 954
1452 954
1453 954
1454 954
1455 954
1456 954
1457 954
1414 955
1415 955
1416 955
1417 955
1418 955
1419 955
1420 955
1421 955
1422 955
1423 955
1424 955
1425 955
1426 955
1427 955
1428 955
1429 955
1430 955
1431 955
1432 955
1433 955
1434 955
1435 955
1436 955
1437 955
1438 955
1439 955
1440 955
1441 955
1442 955
1443 955
1444 955
1445 955
1446 955
1447 955
1448 955
1449 955
1450 955
1451 955
1452 955
1453 955
1454 955
1455 955
1456 955
1457 955
1414 956
1415 956
1416 956
1417 956
1418 956
1419 956
1420 956
1421 956
1422 956
1423 956
1424 956
1425 956
1426 956
1427 956
1428 956
1429 956
1430 956
1431 956
1432 956
1433 956
1434 956
1435 956
1436 956
1437 956
1438 956
1439 956
1440 956
1441 956
1442 956
1443 956
1444 956
1445 956
1446 956
1447 956
1448 956
1449 956
1450 956
1451 956
1452 956
1453 956
1454 956
1455 956
1456 956
1457 956
1414 957
1415 957
1416 957
1417 957
1418 957
1419 957
1420 957
1421 957
1422 957
1423 957
1424 957
1425 957
1426 957
1427 957
1428 957
1429 957
1430 957
1431 957
1432 957
1433 957
1434 957
1435 957
1436 957
1437 957
1438 957
1439 957
1440 957
1441 957
1442 957
1443 957
1444 957
1445 957
1446 957
1447 957
1448 957
1449 957
1450 957
1451 957
1452 957
1453 957
1454 957
1455 957
1456 957
1457 957
1414 958
1415 958
1416 958
1417 958
1418 958
1419 958
1420 958
1421 958
1422 958
1423 958
1424 958
1425 958
1426 958
1427 958
1428 958
1429 958
1430 958
1431 958
1432 958
1433 958
1434 958
1435 958
1436 958
1437 958
1438 958
1439 958
1440 958
1441 958
1442 958
1443 958
1444 958
1445 958
1446 958
1447 958
1448 958
1449 958
1450 958
1451 958
1452 958
1453 958
1454 958
1455 958
1456 958
1457 958
1414 959
1415 959
1416 959
1417 959
1418 959
1419 959
1420 959
1421 959
1422 959
1423 959
1424 959
1425 959
1426 959
1427 959
1428 959
1429 959
1430 959
1431 959
1432 959
1433 959
1434 959
1435 959
1436 959
1437 959
1438 959
1439 959
1440 959
1441 959
1442 959
1443 959
1444 959
1445 959
1446 959
1447 959
1448 959
1449 959
1450 959
1451 959
1452 959
1453 959
1454 959
1455 959
1456 959
1457 959
1414 960
1415 960
1416 960
1417 960
1418 960
1419 960
1420 960
1421 960
1422 960
1423 960
1424 960
1425 960
1426 960
1427 960
1428 960
1429 960
1430 960
1431 960
1432 960
1433 960
1434 960
1435 960
1436 960
1437 960
1438 960
1439 960
1440 960
1441 960
1442 960
1443 960
1444 960
1445 960
1446 960
1447 960
1448 960
1449 960
1450 960
1451 960
1452 960
1453 960
1454 960
1455 960
1456 960
1457 960
1414 961
1415 961
1416 961
1417 961
1418 961
1419 961
1420 961
1421 961
1422 961
1423 961
1424 961
1425 961
1426 961
1427 961
1428 961
1429 961
1430 961
1431 961
1432 961
1433 961
1434 961
1435 961
1436 961
1437 961
1438 961
1439 961
1440 961
1441 961
1442 961
1443 961
1444 961
1445 961
1446 961
1447 961
1448 961
1449 961
1450 961
1451 961
1452 961
1453 961
1454 961
1455 961
1456 961
1457 961
1414 962
1415 962
1416 962
1417 962
1418 962
1419 962
1420 962
1421 962
1422 962
1423 962
1424 962
1425 962
1426 962
1427 962
1428 962
1429 962
1430 962
1431 962
1432 962
1433 962
1434 962
1435 962
1436 962
1437 962
1438 962
1439 962
1440 962
1441 962
1442 962
1443 962
1444 962
1445 962
1446 962
1447 962
1448 962
1449 962
1450 962
1451 962
1452 962
1453 962
1454 962
1455 962
1456 962
1457 962
1414 963
1415 963
1416 963
1417 963
1418 963
1419 963
1420 963
1421 963
1422 963
1423 963
1424 963
1425 963
1426 963
1427 963
1428 963
1429 963
1430 963
1431 963
1432 963
1433 963
1434 963
1435 963
1436 963
1437 963
1438 963
1439 963
1440 963
1441 963
1442 963
1443 963
1444 963
1445 963
1446 963
1447 963
1448 963
1449 963
1450 963
1451 963
1452 963
1453 963
1454 963
1455 963
1456 963
1457 963
1414 964
1415 964
1416 964
1417 964
1418 964
1419 964
1420 964
1421 964
1422 964
1423 964
1424 964
1425 964
1426 964
1427 964
1428 964
1429 964
1430 964
1431 964
1432 964
1433 964
1434 964
1435 964
1436 964
1437 964
1438 964
1439 964
1440 964
1441 964
1442 964
1443 964
1444 964
1445 964
1446 964
1447 964
1448 964
1449 964
1450 964
1451 964
1452 964
1453 964
1454 964
1455 964
1456 964
1457 964
1414 965
1415 965
1416 965
1417 965
1418 965
1419 965
1420 965
1421 965
1422 965
1423 965
1424 965
1425 965
1426 965
1427 965
1428 965
1429 965
1430 965
1431 965
1432 965
1433 965
1434 965
1435 965
1436 965
1437 965
1438 965
1439 965
1440 965
1441 965
1442 965
1443 965
1444 965
1445 965
1446 965
1447 965
1448 965
1449 965
1450 965
1451 965
1452 965
1453 965
1454 965
1455 965
1456 965
1457 965
1414 966
1415 966
1416 966
1417 966
1418 966
1419 966
1420 966
1421 966
1422 966
1423 966
1424 966
1425 966
1426 966
1427 966
1428 966
1429 966
1430 966
1431 966
1432 966
1433 966
1434 966
1435 966
1436 966
1437 966
1438 966
1439 966
1440 966
1441 966
1442 966
1443 966
1444 966
1445 966
1446 966
1447 966
1448 966
1449 966
1450 966
1451 966
1452 966
1453 966
1454 966
1455 966
1456 966
1457 966
1414 967
1415 967
1416 967
1417 967
1418 967
1419 967
1420 967
1421 967
1422 967
1423 967
1424 967
1425 967
1426 967
1427 967
1428 967
1429 967
1430 967
1431 967
1432 967
1433 967
1434 967
1435 967
1436 967
1437 967
1438 967
1439 967
1440 967
1441 967
1442 967
1443 967
1444 967
1445 967
1446 967
1447 967
1448 967
1449 967
1450 967
1451 967
1452 967
1453 967
1454 967
1455 967
1456 967
1457 967
1414 968
1415 968
1416 968
1417 968
1418 968
1419 968
1420 968
1421 968
1422 968
1423 968
1424 968
1425 968
1426 968
1427 968
1428 968
1429 968
1430 968
1431 968
1432 968
1433 968
1434 968
1435 968
1436 968
1437 968
1438 968
1439 968
1440 968
1441 968
1442 968
1443 968
1444 968
1445 968
1446 968
1447 968
1448 968
1449 968
1450 968
1451 968
1452 968
1453 968
1454 968
1455 968
1456 968
1457 968
1414 969
1415 969
1416 969
1417 969
1418 969
1419 969
1420 969
1421 969
1422 969
1423 969
1424 969
1425 969
1426 969
1427 969
1428 969
1429 969
1430 969
1431 969
1432 969
1433 969
1434 969
1435 969
1436 969
1437 969
1438 969
1439 969
1440 969
1441 969
1442 969
1443 969
1444 969
1445 969
1446 969
1447 969
1448 969
1449 969
1450 969
1451 969
1452 969
1453 969
1454 969
1455 969
1456 969
1457 969
1414 970
1415 970
1416 970
1417 970
1418 970
1419 970
1420 970
1421 970
1422 970
1423 970
1424 970
1425 970
1426 970
1427 970
1428 970
1429 970
1430 970
1431 970
1432 970
1433 970
1434 970
1435 970
1436 970
1437 970
1438 970
1439 970
1440 970
1441 970
1442 970
1443 970
1444 970
1445 970
1446 970
1447 970
1448 970
1449 970
1450 970
1451 970
1452 970
1453 970
1454 970
1455 970
1456 970
1457 970
1414 971
1415 971
1416 971
1417 971
1418 971
1419 971
1420 971
1421 971
1422 971
1423 971
1424 971
1425 971
1426 971
1427 971
1428 971
1429 971
1430 971
1431 971
1432 971
1433 971
1434 971
1435 971
1436 971
1437 971
1438 971
1439 971
1440 971
1441 971
1442 971
1443 971
1444 971
1445 971
1446 971
1447 971
1448 971
1449 971
1450 971
1451 971
1452 971
1453 971
1454 971
1455 971
1456 971
1457 971
1414 972
1415 972
1416 972
1417 972
1418 972
1419 972
1420 972
1421 972
1422 972
1423 972
1424 972
1425 972
1426 972
1427 972
1428 972
1429 972
1430 972
1431 972
1432 972
1433 972
1434 972
1435 972
1436 972
1437 972
1438 972
1439 972
1440 972
1441 972
1442 972
1443 972
1444 972
1445 972
1446 972
1447 972
1448 972
1449 972
1450 972
1451 972
1452 972
1453 972
1454 972
1455 972
1456 972
1457 972
1414 973
1415 973
1416 973
1417 973
1418 973
1419 973
1420 973
1421 973
1422 973
1423 973
1424 973
1425 973
1426 973
1427 973
1428 973
1429 973
1430 973
1431 973
1432 973
1433 973
1434 973
1435 973
1436 973
1437 973
1438 973
1439 973
1440 973
1441 973
1442 973
1443 973
1444 973
1445 973
1446 973
1447 973
1448 973
1449 973
1450 973
1451 973
1452 973
1453 973
1454 973
1455 973
1456 973
1457 973
1414 974
1415 974
1416 974
1417 974
1418 974
1419 974
1420 974
1421 974
1422 974
1423 974
1424 974
1425 974
1426 974
1427 974
1428 974
1429 974
1430 974
1431 974
1432 974
1433 974
1434 974
1435 974
1436 974
1437 974
1438 974
1439 974
1440 974
1441 974
1442 974
1443 974
1444 974
1445 974
1446 974
1447 974
1448 974
1449 974
1450 974
1451 974
1452 974
1453 974
1454 974
1455 974
1456 974
1457 974
1414 975
1415 975
1416 975
1417 975
1418 975
1419 975
1420 975
1421 975
1422 975
1423 975
1424 975
1425 975
1426 975
1427 975
1428 975
1429 975
1430 975
1431 975
1432 975
1433 975
1434 975
1435 975
1436 975
1437 975
1438 975
1439 975
1440 975
1441 975
1442 975
1443 975
1444 975
1445 975
1446 975
1447 975
1448 975
1449 975
1450 975
1451 975
1452 975
1453 975
1454 975
1455 975
1456 975
1457 975
1414 976
1415 976
1416 976
1417 976
1418 976
1419 976
1420 976
1421 976
1422 976
1423 976
1424 976
1425 976
1426 976
1427 976
1428 976
1429 976
1430 976
1431 976
1432 976
1433 976
1434 976
1435 976
1436 976
1437 976
1438 976
1439 976
1440 976
1441 976
1442 976
1443 976
1444 976
1445 976
1446 976
1447 976
1448 976
1449 976
1450 976
1451 976
1452 976
1453 976
1454 976
1455 976
1456 976
1457 976
1414 977
1415 977
1416 977
1417 977
1418 977
1419 977
1420 977
1421 977
1422 977
1423 977
1424 977
1425 977
1426 977
1427 977
1428 977
1429 977
1430 977
1431 977
1432 977
1433 977
1434 977
1435 977
1436 977
1437 977
1438 977
1439 977
1440 977
1441 977
1442 977
1443 977
1444 977
1445 977
1446 977
1447 977
1448 977
1449 977
1450 977
1451 977
1452 977
1453 977
1454 977
1455 977
1456 977
1457 977
1414 978
1415 978
1416 978
1417 978
1418 978
1419 978
1420 978
1421 978
1422 978
1423 978
1424 978
1425 978
1426 978
1427 978
1428 978
1429 978
1430 978
1431 978
1432 978
1433 978
1434 978
1435 978
1436 978
1437 978
1438 978
1439 978
1440 978
1441 978
1442 978
1443 978
1444 978
1445 978
1446 978
1447 978
1448 978
1449 978
1450 978
1451 978
1452 978
1453 978
1454 978
1455 978
1456 978
1457 978
1414 979
1415 979
1416 979
1417 979
1418 979
1419 979
1420 979
1421 979
1422 979
1423 979
1424 979
1425 979
1426 979
1427 979
1428 979
1429 979
1430 979
1431 979
1432 979
1433 979
1434 979
1435 979
1436 979
1437 979
1438 979
1439 979
1440 979
1441 979
1442 979
1443 979
1444 979
1445 979
1446 979
1447 979
1448 979
1449 979
1450 979
1451 979
1452 979
1453 979
1454 979
1455 979
1456 979
1457 979
1414 980
1415 980
1416 980
1417 980
1418 980
1419 980
1420 980
1421 980
1422 980
1423 980
1424 980
1425 980
1426 980
1427 980
1428 980
1429 980
1430 980
1431 980
1432 980
1433 980
1434 980
1435 980
1436 980
1437 980
1438 980
1439 980
1440 980
1441 980
1442 980
1443 980
1444 980
1445 980
1446 980
1447 980
1448 980
1449 980
1450 980
1451 980
1452 980
1453 980
1454 980
1455 980
1456 980
1457 980
1414 981
1415 981
1416 981
1417 981
1418 981
1419 981
1420 981
1421 981
1422 981
1423 981
1424 981
1425 981
1426 981
1427 981
1428 981
1429 981
1430 981
1431 981
1432 981
1433 981
1434 981
1435 981
1436 981
1437 981
1438 981
1439 981
1440 981
1441 981
1442 981
1443 981
1444 981
1445 981
1446 981
1447 981
1448 981
1449 981
1450 981
1451 981
1452 981
1453 981
1454 981
1455 981
1456 981
1457 981
1414 982
1415 982
1416 982
1417 982
1418 982
1419 982
1420 982
1421 982
1422 982
1423 982
1424 982
1425 982
1426 982
1427 982
1428 982
1429 982
1430 982
1431 982
1432 982
1433 982
1434 982
1435 982
1436 982
1437 982
1438 982
1439 982
1440 982
1441 982
1442 982
1443 982
1444 982
1445 982
1446 982
1447 982
1448 982
1449 982
1450 982
1451 982
1452 982
1453 982
1454 982
1455 982
1456 982
1457 982
1414 983
1415 983
1416 983
1417 983
1418 983
1419 983
1420 983
1421 983
1422 983
1423 983
1424 983
1425 983
1426 983
1427 983
1428 983
1429 983
1430 983
1431 983
1432 983
1433 983
1434 983
1435 983
1436 983
1437 983
1438 983
1439 983
1440 983
1441 983
1442 983
1443 983
1444 983
1445 983
1446 983
1447 983
1448 983
1449 983
1450 983
1451 983
1452 983
1453 983
1454 983
1455 983
1456 983
1457 983
1534 1021
1535 1021
1536 1021
1537 1021
1538 1021
1539 1021
1540 1021
1541 1021
1542 1021
1543 1021
1544 1021
1545 1021
1546 1021
1547 1021
1548 1021
1549 1021
1550 1021
1551 1021
1552 1021
1553 1021
1554 1021
1555 1021
1556 1021
1557 1021
1558 1021
1559 1021
1560 1021
1561 1021
1562 1021
1563 1021
1564 1021
1565 1021
1566 1021
1567 1021
1568 1021
1569 1021
1570 1021
1571 1021
1572 1021
1573 1021
1574 1021
1575 1021
1576 1021
1577 1021
1534 1022
1535 1022
1536 1022
1537 1022
1538 1022
1539 1022
1540 1022
1541 1022
1542 1022
1543 1022
1544 1022
1545 1022
1546 1022
1547 1022
1548 1022
1549 1022
1550 1022
1551 1022
1552 1022
1553 1022
1554 1022
1555 1022
1556 1022
1557 1022
1558 1022
1559 1022
1560 1022
1561 1022
1562 1022
1563 1022
1564 1022
1565 1022
1566 1022
1567 1022
1568 1022
1569 1022
1570 1022
1571 1022
1572 1022
1573 1022
1574 1022
1575 1022
1576 1022
1577 1022
1534 1023
1535 1023
1536 1023
1537 1023
1538 1023
1539 1023
1540 1023
1541 1023
1542 1023
1543 1023
1544 1023
1545 1023
1546 1023
1547 1023
1548 1023
1549 1023
1550 1023
1551 1023
1552 1023
1553 1023
1554 1023
1555 1023
1556 1023
1557 1023
1558 1023
1559 1023
1560 1023
1561 1023
1562 1023
1563 1023
1564 1023
1565 1023
1566 1023
1567 1023
1568 1023
1569 1023
1570 1023
1571 1023
1572 1023
1573 1023
1574 1023
1575 1023
1576 1023
1577 1023
1534 1024
1535 1024
1536 1024
1537 1024
1538 1024
1539 1024
1540 1024
1541 1024
1542 1024
1543 1024
1544 1024
1545 1024
1546 1024
1547 1024
1548 1024
1549 1024
1550 1024
1551 1024
1552 1024
1553 1024
1554 1024
1555 1024
1556 1024
1557 1024
1558 1024
1559 1024
1560 1024
1561 1024
1562 1024
1563 1024
1564 1024
1565 1024
1566 1024
1567 1024
1568 1024
1569 1024
1570 1024
1571 1024
1572 1024
1573 1024
1574 1024
1575 1024
1576 1024
1577 1024
1534 1025
1535 1025
1536 1025
1537 1025
1538 1025
1539 1025
1540 1025
1541 1025
1542 1025
1543 1025
1544 1025
1545 1025
1546 1025
1547 1025
1548 1025
1549 1025
1550 1025
1551 1025
1552 1025
1553 1025
1554 1025
1555 1025
1556 1025
1557 1025
1558 1025
1559 1025
1560 1025
1561 1025
1562 1025
1563 1025
1564 1025
1565 1025
1566 1025
1567 1025
1568 1025
1569 1025
1570 1025
1571 1025
1572 1025
1573 1025
1574 1025
1575 1025
1576 1025
1577 1025
1534 1026
1535 1026
1536 1026
1537 1026
1538 1026
1539 1026
1540 1026
1541 1026
1542 1026
1543 1026
1544 1026
1545 1026
1546 1026
1547 1026
1548 1026
1549 1026
1550 1026
1551 1026
1552 1026
1553 1026
1554 1026
1555 1026
1556 1026
1557 1026
1558 1026
1559 1026
1560 1026
1561 1026
1562 1026
1563 1026
1564 1026
1565 1026
1566 1026
1567 1026
1568 1026
1569 1026
1570 1026
1571 1026
1572 1026
1573 1026
1574 1026
1575 1026
1576 1026
1577 1026
1534 1027
1535 1027
1536 1027
1537 1027
1538 1027
1539 1027
1540 1027
1541 1027
1542 1027
1543 1027
1544 1027
1545 1027
1546 1027
1547 1027
1548 1027
1549 1027
1550 1027
1551 1027
1552 1027
1553 1027
1554 1027
1555 1027
1556 1027
1557 1027
1558 1027
1559 1027
1560 1027
1561 1027
1562 1027
1563 1027
1564 1027
1565 1027
1566 1027
1567 1027
1568 1027
1569 1027
1570 1027
1571 1027
1572 1027
1573 1027
1574 1027
1575 1027
1576 1027
1577 1027
1534 1028
1535 1028
1536 1028
1537 1028
1538 1028
1539 1028
1540 1028
1541 1028
1542 1028
1543 1028
1544 1028
1545 1028
1546 1028
1547 1028
1548 1028
1549 1028
1550 1028
1551 1028
1552 1028
1553 1028
1554 1028
1555 1028
1556 1028
1557 1028
1558 1028
1559 1028
1560 1028
1561 1028
1562 1028
1563 1028
1564 1028
1565 1028
1566 1028
1567 1028
1568 1028
1569 1028
1570 1028
1571 1028
1572 1028
1573 1028
1574 1028
1575 1028
1576 1028
1577 1028
1534 1029
1535 1029
1536 1029
1537 1029
1538 1029
1539 1029
1540 1029
1541 1029
1542 1029
1543 1029
1544 1029
1545 1029
1546 1029
1547 1029
1548 1029
1549 1029
1550 1029
1551 1029
1552 1029
1553 1029
1554 1029
1555 1029
1556 1029
1557 1029
1558 1029
1559 1029
1560 1029
1561 1029
1562 1029
1563 1029
1564 1029
1565 1029
1566 1029
1567 1029
1568 1029
1569 1029
1570 1029
1571 1029
1572 1029
1573 1029
1574 1029
1575 1029
1576 1029
1577 1029
1534 1030
1535 1030
1536 1030
1537 1030
1538 1030
1539 1030
1540 1030
1541 1030
1542 1030
1543 1030
1544 1030
1545 1030
1546 1030
1547 1030
1548 1030
1549 1030
1550 1030
1551 1030
1552 1030
1553 1030
1554 1030
1555 1030
1556 1030
1557 1030
1558 1030
1559 1030
1560 1030
1561 1030
1562 1030
1563 1030
1564 1030
1565 1030
1566 1030
1567 1030
1568 1030
1569 1030
1570 1030
1571 1030
1572 1030
1573 1030
1574 1030
1575 1030
1576 1030
1577 1030
1534 1031
1535 1031
1536 1031
1537 1031
1538 1031
1539 1031
1540 1031
1541 1031
1542 1031
1543 1031
1544 1031
1545 1031
1546 1031
1547 1031
1548 1031
1549 1031
1550 1031
1551 1031
1552 1031
1553 1031
1554 1031
1555 1031
1556 1031
1557 1031
1558 1031
1559 1031
1560 1031
1561 1031
1562 1031
1563 1031
1564 1031
1565 1031
1566 1031
1567 1031
1568 1031
1569 1031
1570 1031
1571 1031
1572 1031
1573 1031
1574 1031
1575 1031
1576 1031
1577 1031
1534 1032
1535 1032
1536 1032
1537 1032
1538 1032
1539 1032
1540 1032
1541 1032
1542 1032
1543 1032
1544 1032
1545 1032
1546 1032
1547 1032
1548 1032
1549 1032
1550 1032
1551 1032
1552 1032
1553 1032
1554 1032
1555 1032
1556 1032
1557 1032
1558 1032
1559 1032
1560 1032
1561 1032
1562 1032
1563 1032
1564 1032
1565 1032
1566 1032
1567 1032
1568 1032
1569 1032
1570 1032
1571 1032
1572 1032
1573 1032
1574 1032
1575 1032
1576 1032
1577 1032
1534 1033
1535 1033
1536 1033
1537 1033
1538 1033
1539 1033
1540 1033
1541 1033
1542 1033
1543 1033
1544 1033
1545 1033
1546 1033
1547 1033
1548 1033
1549 1033
1550 1033
1551 1033
1552 1033
1553 1033
1554 1033
1555 1033
1556 1033
1557 1033
1558 1033
1559 1033
1560 1033
1561 1033
1562 1033
1563 1033
1564 1033
1565 1033
1566 1033
1567 1033
1568 1033
1569 1033
1570 1033
1571 1033
1572 1033
1573 1033
1574 1033
1575 1033
1576 1033
1577 1033
1534 1034
1535 1034
1536 1034
1537 1034
1538 1034
1539 1034
1540 1034
1541 1034
1542 1034
1543 1034
1544 1034
1545 1034
1546 1034
1547 1034
1548 1034
1549 1034
1550 1034
1551 1034
1552 1034
1553 1034
1554 1034
1555 1034
1556 1034
1557 1034
1558 1034
1559 1034
1560 1034
1561 1034
1562 1034
1563 1034
1564 1034
1565 1034
1566 1034
1567 1034
1568 1034
1569 1034
1570 1034
1571 1034
1572 1034
1573 1034
1574 1034
1575 1034
1576 1034
1577 1034
1534 1035
1535 1035
1536 1035
1537 1035
1538 1035
1539 1035
1540 1035
1541 1035
1542 1035
1543 1035
1544 1035
1545 1035
1546 1035
1547 1035
1548 1035
1549 1035
1550 1035
1551 1035
1552 1035
1553 1035
1554 1035
1555 1035
1556 1035
1557 1035
1558 1035
1559 1035
1560 1035
1561 1035
1562 1035
1563 1035
1564 1035
1565 1035
1566 1035
1567 1035
1568 1035
1569 1035
1570 1035
1571 1035
1572 1035
1573 1035
1574 1035
1575 1035
1576 1035
1577 1035
1534 1036
1535 1036
1536 1036
1537 1036
1538 1036
1539 1036
1540 1036
1541 1036
1542 1036
1543 1036
1544 1036
1545 1036
1546 1036
1547 1036
1548 1036
1549 1036
1550 1036
1551 1036
1552 1036
1553 1036
1554 1036
1555 1036
1556 1036
1557 1036
1558 1036
1559 1036
1560 1036
1561 1036
1562 1036
1563 1036
1564 1036
1565 1036
1566 1036
1567 1036
1568 1036
1569 1036
1570 1036
1571 1036
1572 1036
1573 1036
1574 1036
1575 1036
1576 1036
1577 1036
1534 1037
1535 1037
1536 1037
1537 1037
1538 1037
1539 1037
1540 1037
1541 1037
1542 1037
1543 1037
1544 1037
1545 1037
1546 1037
1547 1037
1548 1037
1549 1037
1550 1037
1551 1037
1552 1037
1553 1037
1554 1037
1555 1037
1556 1037
1557 1037
1558 1037
1559 1037
1560 1037
1561 1037
1562 1037
1563 1037
1564 1037
1565 1037
1566 1037
1567 1037
1568 1037
1569 1037
1570 1037
1571 1037
1572 1037
1573 1037
1574 1037
1575 1037
1576 1037
1577 1037
1534 1038
1535 1038
1536 1038
1537 1038
1538 1038
1539 1038
1540 1038
1541 1038
1542 1038
1543 1038
1544 1038
1545 1038
1546 1038
1547 1038
1548 1038
1549 1038
1550 1038
1551 1038
1552 1038
1553 1038
1554 1038
1555 1038
1556 1038
1557 1038
1558 1038
1559 1038
1560 1038
1561 1038
1562 1038
1563 1038
1564 1038
1565 1038
1566 1038
1567 1038
1568 1038
1569 1038
1570 1038
1571 1038
1572 1038
1573 1038
1574 1038
1575 1038
1576 1038
1577 1038
1534 1039
1535 1039
1536 1039
1537 1039
1538 1039
1539 1039
1540 1039
1541 1039
1542 1039
1543 1039
1544 1039
1545 1039
1546 1039
1547 1039
1548 1039
1549 1039
1550 1039
1551 1039
1552 1039
1553 1039
1554 1039
1555 1039
1556 1039
1557 1039
1558 1039
1559 1039
1560 1039
1561 1039
1562 1039
1563 1039
1564 1039
1565 1039
1566 1039
1567 1039
1568 1039
1569 1039
1570 1039
1571 1039
1572 1039
1573 1039
1574 1039
1575 1039
1576 1039
1577 1039
1534 1040
1535 1040
1536 1040
1537 1040
1538 1040
1539 1040
1540 1040
1541 1040
1542 1040
1543 1040
1544 1040
1545 1040
1546 1040
1547 1040
1548 1040
1549 1040
1550 1040
1551 1040
1552 1040
1553 1040
1554 1040
1555 1040
1556 1040
1557 1040
1558 1040
1559 1040
1560 1040
1561 1040
1562 1040
1563 1040
1564 1040
1565 1040
1566 1040
1567 1040
1568 1040
1569 1040
1570 1040
1571 1040
1572 1040
1573 1040
1574 1040
1575 1040
1576 1040
1577 1040
1534 1041
1535 1041
1536 1041
1537 1041
1538 1041
1539 1041
1540 1041
1541 1041
1542 1041
1543 1041
1544 1041
1545 1041
1546 1041
1547 1041
1548 1041
1549 1041
1550 1041
1551 1041
1552 1041
1553 1041
1554 1041
1555 1041
1556 1041
1557 1041
1558 1041
1559 1041
1560 1041
1561 1041
1562 1041
1563 1041
1564 1041
1565 1041
1566 1041
1567 1041
1568 1041
1569 1041
1570 1041
1571 1041
1572 1041
1573 1041
1574 1041
1575 1041
1576 1041
1577 1041
1534 1042
1535 1042
1536 1042
1537 1042
1538 1042
1539 1042
1540 1042
1541 1042
1542 1042
1543 1042
1544 1042
1545 1042
1546 1042
1547 1042
1548 1042
1549 1042
1550 1042
1551 1042
1552 1042
1553 1042
1554 1042
1555 1042
1556 1042
1557 1042
1558 1042
1559 1042
1560 1042
1561 1042
1562 1042
1563 1042
1564 1042
1565 1042
1566 1042
1567 1042
1568 1042
1569 1042
1570 1042
1571 1042
1572 1042
1573 1042
1574 1042
1575 1042
1576 1042
1577 1042
1534 1043
1535 1043
1536 1043
1537 1043
1538 1043
1539 1043
1540 1043
1541 1043
1542 1043
1543 1043
1544 1043
1545 1043
1546 1043
1547 1043
1548 1043
1549 1043
1550 1043
1551 1043
1552 1043
1553 1043
1554 1043
1555 1043
1556 1043
1557 1043
1558 1043
1559 1043
1560 1043
1561 1043
1562 1043
1563 1043
1564 1043
1565 1043
1566 1043
1567 1043
1568 1043
1569 1043
1570 1043
1571 1043
1572 1043
1573 1043
1574 1043
1575 1043
1576 1043
1577 1043
1534 1044
1535 1044
1536 1044
1537 1044
1538 1044
1539 1044
1540 1044
1541 1044
1542 1044
1543 1044
1544 1044
1545 1044
1546 1044
1547 1044
1548 1044
1549 1044
1550 1044
1551 1044
1552 1044
1553 1044
1554 1044
1555 1044
1556 1044
1557 1044
1558 1044
1559 1044
1560 1044
1561 1044
1562 1044
1563 1044
1564 1044
1565 1044
1566 1044
1567 1044
1568 1044
1569 1044
1570 1044
1571 1044
1572 1044
1573 1044
1574 1044
1575 1044
1576 1044
1577 1044
1534 1045
1535 1045
1536 1045
1537 1045
1538 1045
1539 1045
1540 1045
1541 1045
1542 1045
1543 1045
1544 1045
1545 1045
1546 1045
1547 1045
1548 1045
1549 1045
1550 1045
1551 1045
1552 1045
1553 1045
1554 1045
1555 1045
1556 1045
1557 1045
1558 1045
1559 1045
1560 1045
1561 1045
1562 1045
1563 1045
1564 1045
1565 1045
1566 1045
1567 1045
1568 1045
1569 1045
1570 1045
1571 1045
1572 1045
1573 1045
1574 1045
1575 1045
1576 1045
1577 1045
1534 1046
1535 1046
1536 1046
1537 1046
1538 1046
1539 1046
1540 1046
1541 1046
1542 1046
1543 1046
1544 1046
1545 1046
1546 1046
1547 1046
1548 1046
1549 1046
1550 1046
1551 1046
1552 1046
1553 1046
1554 1046
1555 1046
1556 1046
1557 1046
1558 1046
1559 1046
1560 1046
1561 1046
1562 1046
1563 1046
1564 1046
1565 1046
1566 1046
1567 1046
1568 1046
1569 1046
1570 1046
1571 1046
1572 1046
1573 1046
1574 1046
1575 1046
1576 1046
1577 1046
1534 1047
1535 1047
1536 1047
1537 1047
1538 1047
1539 1047
1540 1047
1541 1047
1542 1047
1543 1047
1544 1047
1545 1047
1546 1047
1547 1047
1548 1047
1549 1047
1550 1047
1551 1047
1552 1047
1553 1047
1554 1047
1555 1047
1556 1047
1557 1047
1558 1047
1559 1047
1560 1047
1561 1047
1562 1047
1563 1047
1564 1047
1565 1047
1566 1047
1567 1047
1568 1047
1569 1047
1570 1047
1571 1047
1572 1047
1573 1047
1574 1047
1575 1047
1576 1047
1577 1047
1534 1048
1535 1048
1536 1048
1537 1048
1538 1048
1539 1048
1540 1048
1541 1048
1542 1048
1543 1048
1544 1048
1545 1048
1546 1048
1547 1048
1548 1048
1549 1048
1550 1048
1551 1048
1552 1048
1553 1048
1554 1048
1555 1048
1556 1048
1557 1048
1558 1048
1559 1048
1560 1048
1561 1048
1562 1048
1563 1048
1564 1048
1565 1048
1566 1048
1567 1048
1568 1048
1569 1048
1570 1048
1571 1048
1572 1048
1573 1048
1574 1048
1575 1048
1576 1048
1577 1048
1534 1049
1535 1049
1536 1049
1537 1049
1538 1049
1539 1049
1540 1049
1541 1049
1542 1049
1543 1049
1544 1049
1545 1049
1546 1049
1547 1049
1548 1049
1549 1049
1550 1049
1551 1049
1552 1049
1553 1049
1554 1049
1555 1049
1556 1049
1557 1049
1558 1049
1559 1049
1560 1049
1561 1049
1562 1049
1563 1049
1564 1049
1565 1049
1566 1049
1567 1049
1568 1049
1569 1049
1570 1049
1571 1049
1572 1049
1573 1049
1574 1049
1575 1049
1576 1049
1577 1049
1534 1050
1535 1050
1536 1050
1537 1050
1538 1050
1539 1050
1540 1050
1541 1050
1542 1050
1543 1050
1544 1050
1545 1050
1546 1050
1547 1050
1548 1050
1549 1050
1550 1050
1551 1050
1552 1050
1553 1050
1554 1050
1555 1050
1556 1050
1557 1050
1558 1050
1559 1050
1560 1050
1561 1050
1562 1050
1563 1050
1564 1050
1565 1050
1566 1050
1567 1050
1568 1050
1569 1050
1570 1050
1571 1050
1572 1050
1573 1050
1574 1050
1575 1050
1576 1050
1577 1050
1534 1051
1535 1051
1536 1051
1537 1051
1538 1051
1539 1051
1540 1051
1541 1051
1542 1051
1543 1051
1544 1051
1545 1051
1546 1051
1547 1051
1548 1051
1549 1051
1550 1051
1551 1051
1552 1051
1553 1051
1554 1051
1555 1051
1556 1051
1557 1051
1558 1051
1559 1051
1560 1051
1561 1051
1562 1051
1563 1051
1564 1051
1565 1051
1566 1051
1567 1051
1568 1051
1569 1051
1570 1051
1571 1051
1572 1051
1573 1051
1574 1051
1575 1051
1576 1051
1577 1051
1534 1052
1535 1052
1536 1052
1537 1052
1538 1052
1539 1052
1540 1052
1541 1052
1542 1052
1543 1052
1544 1052
1545 1052
1546 1052
1547 1052
1548 1052
1549 1052
1550 1052
1551 1052
1552 1052
1553 1052
1554 1052
1555 1052
1556 1052
1557 1052
1558 1052
1559 1052
1560 1052
1561 1052
1562 1052
1563 1052
1564 1052
1565 1052
1566 1052
1567 1052
1568 1052
1569 1052
1570 1052
1571 1052
1572 1052
1573 1052
1574 1052
1575 1052
1576 1052
1577 1052
1534 1053
1535 1053
1536 1053
1537 1053
1538 1053
1539 1053
1540 1053
1541 1053
1542 1053
1543 1053
1544 1053
1545 1053
1546 1053
1547 1053
1548 1053
1549 1053
1550 1053
1551 1053
1552 1053
1553 1053
1554 1053
1555 1053
1556 1053
1557 1053
1558 1053
1559 1053
1560 1053
1561 1053
1562 1053
1563 1053
1564 1053
1565 1053
1566 1053
1567 1053
1568 1053
1569 1053
1570 1053
1571 1053
1572 1053
1573 1053
1574 1053
1575 1053
1576 1053
1577 1053
1534 1054
1535 1054
1536 1054
1537 1054
1538 1054
1539 1054
1540 1054
1541 1054
1542 1054
1543 1054
1544 1054
1545 1054
1546 1054
1547 1054
1548 1054
1549 1054
1550 1054
1551 1054
1552 1054
1553 1054
1554 1054
1555 1054
1556 1054
1557 1054
1558 1054
1559 1054
1560 1054
1561 1054
1562 1054
1563 1054
1564 1054
1565 1054
1566 1054
1567 1054
1568 1054
1569 1054
1570 1054
1571 1054
1572 1054
1573 1054
1574 1054
1575 1054
1576 1054
1577 1054
1534 1055
1535 1055
1536 1055
1537 1055
1538 1055
1539 1055
1540 1055
1541 1055
1542 1055
1543 1055
1544 1055
1545 1055
1546 1055
1547 1055
1548 1055
1549 1055
1550 1055
1551 1055
1552 1055
1553 1055
1554 1055
1555 1055
1556 1055
1557 1055
1558 1055
1559 1055
1560 1055
1561 1055
1562 1055
1563 1055
1564 1055
1565 1055
1566 1055
1567 1055
1568 1055
1569 1055
1570 1055
1571 1055
1572 1055
1573 1055
1574 1055
1575 1055
1576 1055
1577 1055
1534 1056
1535 1056
1536 1056
1537 1056
1538 1056
1539 1056
1540 1056
1541 1056
1542 1056
1543 1056
1544 1056
1545 1056
1546 1056
1547 1056
1548 1056
1549 1056
1550 1056
1551 1056
1552 1056
1553 1056
1554 1056
1555 1056
1556 1056
1557 1056
1558 1056
1559 1056
1560 1056
1561 1056
1562 1056
1563 1056
1564 1056
1565 1056
1566 1056
1567 1056
1568 1056
1569 1056
1570 1056
1571 1056
1572 1056
1573 1056
1574 1056
1575 1056
1576 1056
1577 1056
1534 1057
1535 1057
1536 1057
1537 1057
1538 1057
1539 1057
1540 1057
1541 1057
1542 1057
1543 1057
1544 1057
1545 1057
1546 1057
1547 1057
1548 1057
1549 1057
1550 1057
1551 1057
1552 1057
1553 1057
1554 1057
1555 1057
1556 1057
1557 1057
1558 1057
1559 1057
1560 1057
1561 1057
1562 1057
1563 1057
1564 1057
1565 1057
1566 1057
1567 1057
1568 1057
1569 1057
1570 1057
1571 1057
1572 1057
1573 1057
1574 1057
1575 1057
1576 1057
1577 1057
1534 1058
1535 1058
1536 1058
1537 1058
1538 1058
1539 1058
1540 1058
1541 1058
1542 1058
1543 1058
1544 1058
1545 1058
1546 1058
1547 1058
1548 1058
1549 1058
1550 1058
1551 1058
1552 1058
1553 1058
1554 1058
1555 1058
1556 1058
1557 1058
1558 1058
1559 1058
1560 1058
1561 1058
1562 1058
1563 1058
1564 1058
1565 1058
1566 1058
1567 1058
1568 1058
1569 1058
1570 1058
1571 1058
1572 1058
1573 1058
1574 1058
1575 1058
1576 1058
1577 1058
1534 1059
1535 1059
1536 1059
1537 1059
1538 1059
1539 1059
1540 1059
1541 1059
1542 1059
1543 1059
1544 1059
1545 1059
1546 1059
1547 1059
1548 1059
1549 1059
1550 1059
1551 1059
1552 1059
1553 1059
1554 1059
1555 1059
1556 1059
1557 1059
1558 1059
1559 1059
1560 1059
1561 1059
1562 1059
1563 1059
1564 1059
1565 1059
1566 1059
1567 1059
1568 1059
1569 1059
1570 1059
1571 1059
1572 1059
1573 1059
1574 1059
1575 1059
1576 1059
1577 1059
1534 1060
1535 1060
1536 1060
1537 1060
1538 1060
1539 1060
1540 1060
1541 1060
1542 1060
1543 1060
1544 1060
1545 1060
1546 1060
1547 1060
1548 1060
1549 1060
1550 1060
1551 1060
1552 1060
1553 1060
1554 1060
1555 1060
1556 1060
1557 1060
1558 1060
1559 1060
1560 1060
1561 1060
1562 1060
1563 1060
1564 1060
1565 1060
1566 1060
1567 1060
1568 1060
1569 1060
1570 1060
1571 1060
1572 1060
1573 1060
1574 1060
1575 1060
1576 1060
1577 1060
1534 1061
1535 1061
1536 1061
1537 1061
1538 1061
1539 1061
1540 1061
1541 1061
1542 1061
1543 1061
1544 1061
1545 1061
1546 1061
1547 1061
1548 1061
1549 1061
1550 1061
1551 1061
1552 1061
1553 1061
1554 1061
1555 1061
1556 1061
1557 1061
1558 1061
1559 1061
1560 1061
1561 1061
1562 1061
1563 1061
1564 1061
1565 1061
1566 1061
1567 1061
1568 1061
1569 1061
1570 1061
1571 1061
1572 1061
1573 1061
1574 1061
1575 1061
1576 1061
1577 1061
1534 1062
1535 1062
1536 1062
1537 1062
1538 1062
1539 1062
1540 1062
1541 1062
1542 1062
1543 1062
1544 1062
1545 1062
1546 1062
1547 1062
1548 1062
1549 1062
1550 1062
1551 1062
1552 1062
1553 1062
1554 1062
1555 1062
1556 1062
1557 1062
1558 1062
1559 1062
1560 1062
1561 1062
1562 1062
1563 1062
1564 1062
1565 1062
1566 1062
1567 1062
1568 1062
1569 1062
1570 1062
1571 1062
1572 1062
1573 1062
1574 1062
1575 1062
1576 1062
1577 1062
1534 1063
1535 1063
1536 1063
1537 1063
1538 1063
1539 1063
1540 1063
1541 1063
1542 1063
1543 1063
1544 1063
1545 1063
1546 1063
1547 1063
1548 1063
1549 1063
1550 1063
1551 1063
1552 1063
1553 1063
1554 1063
1555 1063
1556 1063
1557 1063
1558 1063
1559 1063
1560 1063
1561 1063
1562 1063
1563 1063
1564 1063
1565 1063
1566 1063
1567 1063
1568 1063
1569 1063
1570 1063
1571 1063
1572 1063
1573 1063
1574 1063
1575 1063
1576 1063
1577 1063
1534 1064
1535 1064
1536 1064
1537 1064
1538 1064
1539 1064
1540 1064
1541 1064
1542 1064
1543 1064
1544 1064
1545 1064
1546 1064
1547 1064
1548 1064
1549 1064
1550 1064
1551 1064
1552 1064
1553 1064
1554 1064
1555 1064
1556 1064
1557 1064
1558 1064
1559 1064
1560 1064
1561 1064
1562 1064
1563 1064
1564 1064
1565 1064
1566 1064
1567 1064
1568 1064
1569 1064
1570 1064
1571 1064
1572 1064
1573 1064
1574 1064
1575 1064
1576 1064
1577 1064
1654 1102
1655 1102
1656 1102
1657 1102
1658 1102
1659 1102
1660 1102
1661 1102
1662 1102
1663 1102
1664 1102
1665 1102
1666 1102
1667 1102
1668 1102
1669 1102
1670 1102
1671 1102
1672 1102
1673 1102
1674 1102
1675 1102
1676 1102
1677 1102
1678 1102
1679 1102
1680 1102
1681 1102
1682 1102
1683 1102
1684 1102
1685 1102
1686 1102
1687 1102
1688 1102
1689 1102
1690 1102
1691 1102
1692 1102
1693 1102
1694 1102
1695 1102
1696 1102
1697 1102
1654 1103
1655 1103
1656 1103
1657 1103
1658 1103
1659 1103
1660 1103
1661 1103
1662 1103
1663 1103
1664 1103
1665 1103
1666 1103
1667 1103
1668 1103
1669 1103
1670 1103
1671 1103
1672 1103
1673 1103
1674 1103
1675 1103
1676 1103
1677 1103
1678 1103
1679 1103
1680 1103
1681 1103
1682 1103
1683 1103
1684 1103
1685 1103
1686 1103
1687 1103
1688 1103
1689 1103
1690 1103
1691 1103
1692 1103
1693 1103
1694 1103
1695 1103
1696 1103
1697 1103
1654 1104
1655 1104
1656 1104
1657 1104
1658 1104
1659 1104
1660 1104
1661 1104
1662 1104
1663 1104
1664 1104
1665 1104
1666 1104
1667 1104
1668 1104
1669 1104
1670 1104
1671 1104
1672 1104
1673 1104
1674 1104
1675 1104
1676 1104
1677 1104
1678 1104
1679 1104
1680 1104
1681 1104
1682 1104
1683 1104
1684 1104
1685 1104
1686 1104
1687 1104
1688 1104
1689 1104
1690 1104
1691 1104
1692 1104
1693 1104
1694 1104
1695 1104
1696 1104
1697 1104
1654 1105
1655 1105
1656 1105
1657 1105
1658 1105
1659 1105
1660 1105
1661 1105
1662 1105
1663 1105
1664 1105
1665 1105
1666 1105
1667 1105
1668 1105
1669 1105
1670 1105
1671 1105
1672 1105
1673 1105
1674 1105
1675 1105
1676 1105
1677 1105
1678 1105
1679 1105
1680 1105
1681 1105
1682 1105
1683 1105
1684 1105
1685 1105
1686 1105
1687 1105
1688 1105
1689 1105
1690 1105
1691 1105
1692 1105
1693 1105
1694 1105
1695 1105
1696 1105
1697 1105
1654 1106
1655 1106
1656 1106
1657 1106
1658 1106
1659 1106
1660 1106
1661 1106
1662 1106
1663 1106
1664 1106
1665 1106
1666 1106
1667 1106
1668 1106
1669 1106
1670 1106
1671 1106
1672 1106
1673 1106
1674 1106
1675 1106
1676 1106
1677 1106
1678 1106
1679 1106
1680 1106
1681 1106
1682 1106
1683 1106
1684 1106
1685 1106
1686 1106
1687 1106
1688 1106
1689 1106
1690 1106
1691 1106
1692 1106
1693 1106
1694 1106
1695 1106
1696 1106
1697 1106
1654 1107
1655 1107
1656 1107
1657 1107
1658 1107
1659 1107
1660 1107
1661 1107
1662 1107
1663 1107
1664 1107
1665 1107
1666 1107
1667 1107
1668 1107
1669 1107
1670 1107
1671 1107
1672 1107
1673 1107
1674 1107
1675 1107
1676 1107
1677 1107
1678 1107
1679 1107
1680 1107
1681 1107
1682 1107
1683 1107
1684 1107
1685 1107
1686 1107
1687 1107
1688 1107
1689 1107
1690 1107
1691 1107
1692 1107
1693 1107
1694 1107
1695 1107
1696 1107
1697 1107
1654 1108
1655 1108
1656 1108
1657 1108
1658 1108
1659 1108
1660 1108
1661 1108
1662 1108
1663 1108
1664 1108
1665 1108
1666 1108
1667 1108
1668 1108
1669 1108
1670 1108
1671 1108
1672 1108
1673 1108
1674 1108
1675 1108
1676 1108
1677 1108
1678 1108
1679 1108
1680 1108
1681 1108
1682 1108
1683 1108
1684 1108
1685 1108
1686 1108
1687 1108
1688 1108
1689 1108
1690 1108
1691 1108
1692 1108
1693 1108
1694 1108
1695 1108
1696 1108
1697 1108
1654 1109
1655 1109
1656 1109
1657 1109
1658 1109
1659 1109
1660 1109
1661 1109
1662 1109
1663 1109
1664 1109
1665 1109
1666 1109
1667 1109
1668 1109
1669 1109
1670 1109
1671 1109
1672 1109
1673 1109
1674 1109
1675 1109
1676 1109
1677 1109
1678 1109
1679 1109
1680 1109
1681 1109
1682 1109
1683 1109
1684 1109
1685 1109
1686 1109
1687 1109
1688 1109
1689 1109
1690 1109
1691 1109
1692 1109
1693 1109
1694 1109
1695 1109
1696 1109
1697 1109
1654 1110
1655 1110
1656 1110
1657 1110
1658 1110
1659 1110
1660 1110
1661 1110
1662 1110
1663 1110
1664 1110
1665 1110
1666 1110
1667 1110
1668 1110
1669 1110
1670 1110
1671 1110
1672 1110
1673 1110
1674 1110
1675 1110
1676 1110
1677 1110
1678 1110
1679 1110
1680 1110
1681 1110
1682 1110
1683 1110
1684 1110
1685 1110
1686 1110
1687 1110
1688 1110
1689 1110
1690 1110
1691 1110
1692 1110
1693 1110
1694 1110
1695 1110
1696 1110
1697 1110
1654 1111
1655 1111
1656 1111
1657 1111
1658 1111
1659 1111
1660 1111
1661 1111
1662 1111
1663 1111
1664 1111
1665 1111
1666 1111
1667 1111
1668 1111
1669 1111
1670 1111
1671 1111
1672 1111
1673 1111
1674 1111
1675 1111
1676 1111
1677 1111
1678 1111
1679 1111
1680 1111
1681 1111
1682 1111
1683 1111
1684 1111
1685 1111
1686 1111
1687 1111
1688 1111
1689 1111
1690 1111
1691 1111
1692 1111
1693 1111
1694 1111
1695 1111
1696 1111
1697 1111
1654 1112
1655 1112
1656 1112
1657 1112
1658 1112
1659 1112
1660 1112
1661 1112
1662 1112
1663 1112
1664 1112
1665 1112
1666 1112
1667 1112
1668 1112
1669 1112
1670 1112
1671 1112
1672 1112
1673 1112
1674 1112
1675 1112
1676 1112
1677 1112
1678 1112
1679 1112
1680 1112
1681 1112
1682 1112
1683 1112
1684 1112
1685 1112
1686 1112
1687 1112
1688 1112
1689 1112
1690 1112
1691 1112
1692 1112
1693 1112
1694 1112
1695 1112
1696 1112
1697 1112
1654 1113
1655 1113
1656 1113
1657 1113
1658 1113
1659 1113
1660 1113
1661 1113
1662 1113
1663 1113
1664 1113
1665 1113
1666 1113
1667 1113
1668 1113
1669 1113
1670 1113
1671 1113
1672 1113
1673 1113
1674 1113
1675 1113
1676 1113
1677 1113
1678 1113
1679 1113
1680 1113
1681 1113
1682 1113
1683 1113
1684 1113
1685 1113
1686 1113
1687 1113
1688 1113
1689 1113
1690 1113
1691 1113
1692 1113
1693 1113
1694 1113
1695 1113
1696 1113
1697 1113
1654 1114
1655 1114
1656 1114
1657 1114
1658 1114
1659 1114
1660 1114
1661 1114
1662 1114
1663 1114
1664 1114
1665 1114
1666 1114
1667 1114
1668 1114
1669 1114
1670 1114
1671 1114
1672 1114
1673 1114
1674 1114
1675 1114
1676 1114
1677 1114
1678 1114
1679 1114
1680 1114
1681 1114
1682 1114
1683 1114
1684 1114
1685 1114
1686 1114
1687 1114
1688 1114
1689 1114
1690 1114
1691 1114
1692 1114
1693 1114
1694 1114
1695 1114
1696 1114
1697 1114
1654 1115
1655 1115
1656 1115
1657 1115
1658 1115
1659 1115
1660 1115
1661 1115
1662 1115
1663 1115
1664 1115
1665 1115
1666 1115
1667 1115
1668 1115
1669 1115
1670 1115
1671 1115
1672 1115
1673 1115
1674 1115
1675 1115
1676 1115
1677 1115
1678 1115
1679 1115
1680 1115
1681 1115
1682 1115
1683 1115
1684 1115
1685 1115
1686 1115
1687 1115
1688 1115
1689 1115
1690 1115
1691 1115
1692 1115
1693 1115
1694 1115
1695 1115
1696 1115
1697 1115
1654 1116
1655 1116
1656 1116
1657 1116
1658 1116
1659 1116
1660 1116
1661 1116
1662 1116
1663 1116
1664 1116
1665 1116
1666 1116
1667 1116
1668 1116
1669 1116
1670 1116
1671 1116
1672 1116
1673 1116
1674 1116
1675 1116
1676 1116
1677 1116
1678 1116
1679 1116
1680 1116
1681 1116
1682 1116
1683 1116
1684 1116
1685 1116
1686 1116
1687 1116
1688 1116
1689 1116
1690 1116
1691 1116
1692 1116
1693 1116
1694 1116
1695 1116
1696 1116
1697 1116
1654 1117
1655 1117
1656 1117
1657 1117
1658 1117
1659 1117
1660 1117
1661 1117
1662 1117
1663 1117
1664 1117
1665 1117
1666 1117
1667 1117
1668 1117
1669 1117
1670 1117
1671 1117
1672 1117
1673 1117
1674 1117
1675 1117
1676 1117
1677 1117
1678 1117
1679 1117
1680 1117
1681 1117
1682 1117
1683 1117
1684 1117
1685 1117
1686 1117
1687 1117
1688 1117
1689 1117
1690 1117
1691 1117
1692 1117
1693 1117
1694 1117
1695 1117
1696 1117
1697 1117
1654 1118
1655 1118
1656 1118
1657 1118
1658 1118
1659 1118
1660 1118
1661 1118
1662 1118
1663 1118
1664 1118
1665 1118
1666 1118
1667 1118
1668 1118
1669 1118
1670 1118
1671 1118
1672 1118
1673 1118
1674 1118
1675 1118
1676 1118
1677 1118
1678 1118
1679 1118
1680 1118
1681 1118
1682 1118
1683 1118
1684 1118
1685 1118
1686 1118
1687 1118
1688 1118
1689 1118
1690 1118
1691 1118
1692 1118
1693 1118
1694 1118
1695 1118
1696 1118
1697 1118
1654 1119
1655 1119
1656 1119
1657 1119
1658 1119
1659 1119
1660 1119
1661 1119
1662 1119
1663 1119
1664 1119
1665 1119
1666 1119
1667 1119
1668 1119
1669 1119
1670 1119
1671 1119
1672 1119
1673 1119
1674 1119
1675 1119
1676 1119
1677 1119
1678 1119
1679 1119
1680 1119
1681 1119
1682 1119
1683 1119
1684 1119
1685 1119
1686 1119
1687 1119
1688 1119
1689 1119
1690 1119
1691 1119
1692 1119
1693 1119
1694 1119
1695 1119
1696 1119
1697 1119
1654 1120
1655 1120
1656 1120
1657 1120
1658 1120
1659 1120
1660 1120
1661 1120
1662 1120
1663 1120
1664 1120
1665 1120
1666 1120
1667 1120
1668 1120
1669 1120
1670 1120
1671 1120
1672 1120
1673 1120
1674 1120
1675 1120
1676 1120
1677 1120
1678 1120
1679 1120
1680 1120
1681 1120
1682 1120
1683 1120
1684 1120
1685 1120
1686 1120
1687 1120
1688 1120
1689 1120
1690 1120
1691 1120
1692 1120
1693 1120
1694 1120
1695 1120
1696 1120
1697 1120
1654 1121
1655 1121
1656 1121
1657 1121
1658 1121
1659 1121
1660 1121
1661 1121
1662 1121
1663 1121
1664 1121
1665 1121
1666 1121
1667 1121
1668 1121
1669 1121
1670 1121
1671 1121
1672 1121
1673 1121
1674 1121
1675 1121
1676 1121
1677 1121
1678 1121
1679 1121
1680 1121
1681 1121
1682 1121
1683 1121
1684 1121
1685 1121
1686 1121
1687 1121
1688 1121
1689 1121
1690 1121
1691 1121
1692 1121
1693 1121
1694 1121
1695 1121
1696 1121
1697 1121
1654 1122
1655 1122
1656 1122
1657 1122
1658 1122
1659 1122
1660 1122
1661 1122
1662 1122
1663 1122
1664 1122
1665 1122
1666 1122
1667 1122
1668 1122
1669 1122
1670 1122
1671 1122
1672 1122
1673 1122
1674 1122
1675 1122
1676 1122
1677 1122
1678 1122
1679 1122
1680 1122
1681 1122
1682 1122
1683 1122
1684 1122
1685 1122
1686 1122
1687 1122
1688 1122
1689 1122
1690 1122
1691 1122
1692 1122
1693 1122
1694 1122
1695 1122
1696 1122
1697 1122
1654 1123
1655 1123
1656 1123
1657 1123
1658 1123
1659 1123
1660 1123
1661 1123
1662 1123
1663 1123
1664 1123
1665 1123
1666 1123
1667 1123
1668 1123
1669 1123
1670 1123
1671 1123
1672 1123
1673 1123
1674 1123
1675 1123
1676 1123
1677 1123
1678 1123
1679 1123
1680 1123
1681 1123
1682 1123
1683 1123
1684 1123
1685 1123
1686 1123
1687 1123
1688 1123
1689 1123
1690 1123
1691 1123
1692 1123
1693 1123
1694 1123
1695 1123
1696 1123
1697 1123
1654 1124
1655 1124
1656 1124
1657 1124
1658 1124
1659 1124
1660 1124
1661 1124
1662 1124
1663 1124
1664 1124
1665 1124
1666 1124
1667 1124
1668 1124
1669 1124
1670 1124
1671 1124
1672 1124
1673 1124
1674 1124
1675 1124
1676 1124
1677 1124
1678 1124
1679 1124
1680 1124
1681 1124
1682 1124
1683 1124
1684 1124
1685 1124
1686 1124
1687 1124
1688 1124
1689 1124
1690 1124
1691 1124
1692 1124
1693 1124
1694 1124
1695 1124
1696 1124
1697 1124
1654 1125
1655 1125
1656 1125
1657 1125
1658 1125
1659 1125
1660 1125
1661 1125
1662 1125
1663 1125
1664 1125
1665 1125
1666 1125
1667 1125
1668 1125
1669 1125
1670 1125
1671 1125
1672 1125
1673 1125
1674 1125
1675 1125
1676 1125
1677 1125
1678 1125
1679 1125
1680 1125
1681 1125
1682 1125
1683 1125
1684 1125
1685 1125
1686 1125
1687 1125
1688 1125
1689 1125
1690 1125
1691 1125
1692 1125
1693 1125
1694 1125
1695 1125
1696 1125
1697 1125
1654 1126
1655 1126
1656 1126
1657 1126
1658 1126
1659 1126
1660 1126
1661 1126
1662 1126
1663 1126
1664 1126
1665 1126
1666 1126
1667 1126
1668 1126
1669 1126
1670 1126
1671 1126
1672 1126
1673 1126
1674 1126
1675 1126
1676 1126
1677 1126
1678 1126
1679 1126
1680 1126
1681 1126
1682 1126
1683 1126
1684 1126
1685 1126
1686 1126
1687 1126
1688 1126
1689 1126
1690 1126
1691 1126
1692 1126
1693 1126
1694 1126
1695 1126
1696 1126
1697 1126
1654 1127
1655 1127
1656 1127
1657 1127
1658 1127
1659 1127
1660 1127
1661 1127
1662 1127
1663 1127
1664 1127
1665 1127
1666 1127
1667 1127
1668 1127
1669 1127
1670 1127
1671 1127
1672 1127
1673 1127
1674 1127
1675 1127
1676 1127
1677 1127
1678 1127
1679 1127
1680 1127
1681 1127
1682 1127
1683 1127
1684 1127
1685 1127
1686 1127
1687 1127
1688 1127
1689 1127
1690 1127
1691 1127
1692 1127
1693 1127
1694 1127
1695 1127
1696 1127
1697 1127
1654 1128
1655 1128
1656 1128
1657 1128
1658 1128
1659 1128
1660 1128
1661 1128
1662 1128
1663 1128
1664 1128
1665 1128
1666 1128
1667 1128
1668 1128
1669 1128
1670 1128
1671 1128
1672 1128
1673 1128
1674 1128
1675 1128
1676 1128
1677 1128
1678 1128
1679 1128
1680 1128
1681 1128
1682 1128
1683 1128
1684 1128
1685 1128
1686 1128
1687 1128
1688 1128
1689 1128
1690 1128
1691 1128
1692 1128
1693 1128
1694 1128
1695 1128
1696 1128
1697 1128
1654 1129
1655 1129
1656 1129
1657 1129
1658 1129
1659 1129
1660 1129
1661 1129
1662 1129
1663 1129
1664 1129
1665 1129
1666 1129
1667 1129
1668 1129
1669 1129
1670 1129
1671 1129
1672 1129
1673 1129
1674 1129
1675 1129
1676 1129
1677 1129
1678 1129
1679 1129
1680 1129
1681 1129
1682 1129
1683 1129
1684 1129
1685 1129
1686 1129
1687 1129
1688 1129
1689 1129
1690 1129
1691 1129
1692 1129
1693 1129
1694 1129
1695 1129
1696 1129
1697 1129
1654 1130
1655 1130
1656 1130
1657 1130
1658 1130
1659 1130
1660 1130
1661 1130
1662 1130
1663 1130
1664 1130
1665 1130
1666 1130
1667 1130
1668 1130
1669 1130
1670 1130
1671 1130
1672 1130
1673 1130
1674 1130
1675 1130
1676 1130
1677 1130
1678 1130
1679 1130
1680 1130
1681 1130
1682 1130
1683 1130
1684 1130
1685 1130
1686 1130
1687 1130
1688 1130
1689 1130
1690 1130
1691 1130
1692 1130
1693 1130
1694 1130
1695 1130
1696 1130
1697 1130
1654 1131
1655 1131
1656 1131
1657 1131
1658 1131
1659 1131
1660 1131
1661 1131
1662 1131
1663 1131
1664 1131
1665 1131
1666 1131
1667 1131
1668 1131
1669 1131
1670 1131
1671 1131
1672 1131
1673 1131
1674 1131
1675 1131
1676 1131
1677 1131
1678 1131
1679 1131
1680 1131
1681 1131
1682 1131
1683 1131
1684 1131
1685 1131
1686 1131
1687 1131
1688 1131
1689 1131
1690 1131
1691 1131
1692 1131
1693 1131
1694 1131
1695 1131
1696 1131
1697 1131
1654 1132
1655 1132
1656 1132
1657 1132
1658 1132
1659 1132
1660 1132
1661 1132
1662 1132
1663 1132
1664 1132
1665 1132
1666 1132
1667 1132
1668 1132
1669 1132
1670 1132
1671 1132
1672 1132
1673 1132
1674 1132
1675 1132
1676 1132
1677 1132
1678 1132
1679 1132
1680 1132
1681 1132
1682 1132
1683 1132
1684 1132
1685 1132
1686 1132
1687 1132
1688 1132
1689 1132
1690 1132
1691 1132
1692 1132
1693 1132
1694 1132
1695 1132
1696 1132
1697 1132
1654 1133
1655 1133
1656 1133
1657 1133
1658 1133
1659 1133
1660 1133
1661 1133
1662 1133
1663 1133
1664 1133
1665 1133
1666 1133
1667 1133
1668 1133
1669 1133
1670 1133
1671 1133
1672 1133
1673 1133
1674 1133
1675 1133
1676 1133
1677 1133
1678 1133
1679 1133
1680 1133
1681 1133
1682 1133
1683 1133
1684 1133
1685 1133
1686 1133
1687 1133
1688 1133
1689 1133
1690 1133
1691 1133
1692 1133
1693 1133
1694 1133
1695 1133
1696 1133
1697 1133
1654 1134
1655 1134
1656 1134
1657 1134
1658 1134
1659 1134
1660 1134
1661 1134
1662 1134
1663 1134
1664 1134
1665 1134
1666 1134
1667 1134
1668 1134
1669 1134
1670 1134
1671 1134
1672 1134
1673 1134
1674 1134
1675 1134
1676 1134
1677 1134
1678 1134
1679 1134
1680 1134
1681 1134
1682 1134
1683 1134
1684 1134
1685 1134
1686 1134
1687 1134
1688 1134
1689 1134
1690 1134
1691 1134
1692 1134
1693 1134
1694 1134
1695 1134
1696 1134
1697 1134
1654 1135
1655 1135
1656 1135
1657 1135
1658 1135
1659 1135
1660 1135
1661 1135
1662 1135
1663 1135
1664 1135
1665 1135
1666 1135
1667 1135
1668 1135
1669 1135
1670 1135
1671 1135
1672 1135
1673 1135
1674 1135
1675 1135
1676 1135
1677 1135
1678 1135
1679 1135
1680 1135
1681 1135
1682 1135
1683 1135
1684 1135
1685 1135
1686 1135
1687 1135
1688 1135
1689 1135
1690 1135
1691 1135
1692 1135
1693 1135
1694 1135
1695 1135
1696 1135
1697 1135
1654 1136
1655 1136
1656 1136
1657 1136
1658 1136
1659 1136
1660 1136
1661 1136
1662 1136
1663 1136
1664 1136
1665 1136
1666 1136
1667 1136
1668 1136
1669 1136
1670 1136
1671 1136
1672 1136
1673 1136
1674 1136
1675 1136
1676 1136
1677 1136
1678 1136
1679 1136
1680 1136
1681 1136
1682 1136
1683 1136
1684 1136
1685 1136
1686 1136
1687 1136
1688 1136
1689 1136
1690 1136
1691 1136
1692 1136
1693 1136
1694 1136
1695 1136
1696 1136
1697 1136
1654 1137
1655 1137
1656 1137
1657 1137
1658 1137
1659 1137
1660 1137
1661 1137
1662 1137
1663 1137
1664 1137
1665 1137
1666 1137
1667 1137
1668 1137
1669 1137
1670 1137
1671 1137
1672 1137
1673 1137
1674 1137
1675 1137
1676 1137
1677 1137
1678 1137
1679 1137
1680 1137
1681 1137
1682 1137
1683 1137
1684 1137
1685 1137
1686 1137
1687 1137
1688 1137
1689 1137
1690 1137
1691 1137
1692 1137
1693 1137
1694 1137
1695 1137
1696 1137
1697 1137
1654 1138
1655 1138
1656 1138
1657 1138
1658 1138
1659 1138
1660 1138
1661 1138
1662 1138
1663 1138
1664 1138
1665 1138
1666 1138
1667 1138
1668 1138
1669 1138
1670 1138
1671 1138
1672 1138
1673 1138
1674 1138
1675 1138
1676 1138
1677 1138
1678 1138
1679 1138
1680 1138
1681 1138
1682 1138
1683 1138
1684 1138
1685 1138
1686 1138
1687 1138
1688 1138
1689 1138
1690 1138
1691 1138
1692 1138
1693 1138
1694 1138
1695 1138
1696 1138
1697 1138
1654 1139
1655 1139
1656 1139
1657 1139
1658 1139
1659 1139
1660 1139
1661 1139
1662 1139
1663 1139
1664 1139
1665 1139
1666 1139
1667 1139
1668 1139
1669 1139
1670 1139
1671 1139
1672 1139
1673 1139
1674 1139
1675 1139
1676 1139
1677 1139
1678 1139
1679 1139
1680 1139
1681 1139
1682 1139
1683 1139
1684 1139
1685 1139
1686 1139
1687 1139
1688 1139
1689 1139
1690 1139
1691 1139
1692 1139
1693 1139
1694 1139
1695 1139
1696 1139
1697 1139
1654 1140
1655 1140
1656 1140
1657 1140
1658 1140
1659 1140
1660 1140
1661 1140
1662 1140
1663 1140
1664 1140
1665 1140
1666 1140
1667 1140
1668 1140
1669 1140
1670 1140
1671 1140
1672 1140
1673 1140
1674 1140
1675 1140
1676 1140
1677 1140
1678 1140
1679 1140
1680 1140
1681 1140
1682 1140
1683 1140
1684 1140
1685 1140
1686 1140
1687 1140
1688 1140
1689 1140
1690 1140
1691 1140
1692 1140
1693 1140
1694 1140
1695 1140
1696 1140
1697 1140
1654 1141
1655 1141
1656 1141
1657 1141
1658 1141
1659 1141
1660 1141
1661 1141
1662 1141
1663 1141
1664 1141
1665 1141
1666 1141
1667 1141
1668 1141
1669 1141
1670 1141
1671 1141
1672 1141
1673 1141
1674 1141
1675 1141
1676 1141
1677 1141
1678 1141
1679 1141
1680 1141
1681 1141
1682 1141
1683 1141
1684 1141
1685 1141
1686 1141
1687 1141
1688 1141
1689 1141
1690 1141
1691 1141
1692 1141
1693 1141
1694 1141
1695 1141
1696 1141
1697 1141
1654 1142
1655 1142
1656 1142
1657 1142
1658 1142
1659 1142
1660 1142
1661 1142
1662 1142
1663 1142
1664 1142
1665 1142
1666 1142
1667 1142
1668 1142
1669 1142
1670 1142
1671 1142
1672 1142
1673 1142
1674 1142
1675 1142
1676 1142
1677 1142
1678 1142
1679 1142
1680 1142
1681 1142
1682 1142
1683 1142
1684 1142
1685 1142
1686 1142
1687 1142
1688 1142
1689 1142
1690 1142
1691 1142
1692 1142
1693 1142
1694 1142
1695 1142
1696 1142
1697 1142
1654 1143
1655 1143
1656 1143
1657 1143
1658 1143
1659 1143
1660 1143
1661 1143
1662 1143
1663 1143
1664 1143
1665 1143
1666 1143
1667 1143
1668 1143
1669 1143
1670 1143
1671 1143
1672 1143
1673 1143
1674 1143
1675 1143
1676 1143
1677 1143
1678 1143
1679 1143
1680 1143
1681 1143
1682 1143
1683 1143
1684 1143
1685 1143
1686 1143
1687 1143
1688 1143
1689 1143
1690 1143
1691 1143
1692 1143
1693 1143
1694 1143
1695 1143
1696 1143
1697 1143
1654 1144
1655 1144
1656 1144
1657 1144
1658 1144
1659 1144
1660 1144
1661 1144
1662 1144
1663 1144
1664 1144
1665 1144
1666 1144
1667 1144
1668 1144
1669 1144
1670 1144
1671 1144
1672 1144
1673 1144
1674 1144
1675 1144
1676 1144
1677 1144
1678 1144
1679 1144
1680 1144
1681 1144
1682 1144
1683 1144
1684 1144
1685 1144
1686 1144
1687 1144
1688 1144
1689 1144
1690 1144
1691 1144
1692 1144
1693 1144
1694 1144
1695 1144
1696 1144
1697 1144
1654 1145
1655 1145
1656 1145
1657 1145
1658 1145
1659 1145
1660 1145
1661 1145
1662 1145
1663 1145
1664 1145
1665 1145
1666 1145
1667 1145
1668 1145
1669 1145
1670 1145
1671 1145
1672 1145
1673 1145
1674 1145
1675 1145
1676 1145
1677 1145
1678 1145
1679 1145
1680 1145
1681 1145
1682 1145
1683 1145
1684 1145
1685 1145
1686 1145
1687 1145
1688 1145
1689 1145
1690 1145
1691 1145
1692 1145
1693 1145
1694 1145
1695 1145
1696 1145
1697 1145
