%%MatrixMarket matrix coordinate pattern general
1773 1226 48972
89 1
90 1
91 1
92 1
93 1
94 1
95 1
96 1
97 1
98 1
99 1
100 1
101 1
102 1
103 1
104 1
105 1
106 1
107 1
108 1
109 1
110 1
111 1
112 1
113 1
114 1
115 1
116 1
117 1
118 1
119 1
120 1
121 1
122 1
123 1
124 1
125 1
126 1
127 1
128 1
129 1
130 1
131 1
132 1
133 1
134 1
135 1
136 1
137 1
138 1
139 1
140 1
141 1
142 1
143 1
144 1
145 1
146 1
147 1
148 1
149 1
89 2
90 2
91 2
92 2
93 2
94 2
95 2
96 2
97 2
98 2
99 2
100 2
101 2
102 2
103 2
104 2
105 2
106 2
107 2
108 2
109 2
110 2
111 2
112 2
113 2
114 2
115 2
116 2
117 2
118 2
119 2
120 2
121 2
122 2
123 2
124 2
125 2
126 2
127 2
128 2
129 2
130 2
131 2
132 2
133 2
134 2
135 2
136 2
137 2
138 2
139 2
140 2
141 2
142 2
143 2
144 2
145 2
146 2
147 2
148 2
149 2
89 3
90 3
91 3
92 3
93 3
94 3
95 3
96 3
97 3
98 3
99 3
100 3
101 3
102 3
103 3
104 3
105 3
106 3
107 3
108 3
109 3
110 3
111 3
112 3
113 3
114 3
115 3
116 3
117 3
118 3
119 3
120 3
121 3
122 3
123 3
124 3
125 3
126 3
127 3
128 3
129 3
130 3
131 3
132 3
133 3
134 3
135 3
136 3
137 3
138 3
139 3
140 3
141 3
142 3
143 3
144 3
145 3
146 3
147 3
148 3
149 3
89 4
90 4
91 4
92 4
93 4
94 4
95 4
96 4
97 4
98 4
99 4
100 4
101 4
102 4
103 4
104 4
105 4
106 4
107 4
108 4
109 4
110 4
111 4
112 4
113 4
114 4
115 4
116 4
117 4
118 4
119 4
120 4
121 4
122 4
123 4
124 4
125 4
126 4
127 4
128 4
129 4
130 4
131 4
132 4
133 4
134 4
135 4
136 4
137 4
138 4
139 4
140 4
141 4
142 4
143 4
144 4
145 4
146 4
147 4
148 4
149 4
89 5
90 5
91 5
92 5
93 5
94 5
95 5
96 5
97 5
98 5
99 5
100 5
101 5
102 5
103 5
104 5
105 5
106 5
107 5
108 5
109 5
110 5
111 5
112 5
113 5
114 5
115 5
116 5
117 5
118 5
119 5
120 5
121 5
122 5
123 5
124 5
125 5
126 5
127 5
128 5
129 5
130 5
131 5
132 5
133 5
134 5
135 5
136 5
137 5
138 5
139 5
140 5
141 5
142 5
143 5
144 5
145 5
146 5
147 5
148 5
149 5
89 6
90 6
91 6
92 6
93 6
94 6
95 6
96 6
97 6
98 6
99 6
100 6
101 6
102 6
103 6
104 6
105 6
106 6
107 6
108 6
109 6
110 6
111 6
112 6
113 6
114 6
115 6
116 6
117 6
118 6
119 6
120 6
121 6
122 6
123 6
124 6
125 6
126 6
127 6
128 6
129 6
130 6
131 6
132 6
133 6
134 6
135 6
136 6
137 6
138 6
139 6
140 6
141 6
142 6
143 6
144 6
145 6
146 6
147 6
148 6
149 6
89 7
90 7
91 7
92 7
93 7
94 7
95 7
96 7
97 7
98 7
99 7
100 7
101 7
102 7
103 7
104 7
105 7
106 7
107 7
108 7
109 7
110 7
111 7
112 7
113 7
114 7
115 7
116 7
117 7
118 7
119 7
120 7
121 7
122 7
123 7
124 7
125 7
126 7
127 7
128 7
129 7
130 7
131 7
132 7
133 7
134 7
135 7
136 7
137 7
138 7
139 7
140 7
141 7
142 7
143 7
144 7
145 7
146 7
147 7
148 7
149 7
89 8
90 8
91 8
92 8
93 8
94 8
95 8
96 8
97 8
98 8
99 8
100 8
101 8
102 8
103 8
104 8
105 8
106 8
107 8
108 8
109 8
110 8
111 8
112 8
113 8
114 8
115 8
116 8
117 8
118 8
119 8
120 8
121 8
122 8
123 8
124 8
125 8
126 8
127 8
128 8
129 8
130 8
131 8
132 8
133 8
134 8
135 8
136 8
137 8
138 8
139 8
140 8
141 8
142 8
143 8
144 8
145 8
146 8
147 8
148 8
149 8
89 9
90 9
91 9
92 9
93 9
94 9
95 9
96 9
97 9
98 9
99 9
100 9
101 9
102 9
103 9
104 9
105 9
106 9
107 9
108 9
109 9
110 9
111 9
112 9
113 9
114 9
115 9
116 9
117 9
118 9
119 9
120 9
121 9
122 9
123 9
124 9
125 9
126 9
127 9
128 9
129 9
130 9
131 9
132 9
133 9
134 9
135 9
136 9
137 9
138 9
139 9
140 9
141 9
142 9
143 9
144 9
145 9
146 9
147 9
148 9
149 9
89 10
90 10
91 10
92 10
93 10
94 10
95 10
96 10
97 10
98 10
99 10
100 10
101 10
102 10
103 10
104 10
105 10
106 10
107 10
108 10
109 10
110 10
111 10
112 10
113 10
114 10
115 10
116 10
117 10
118 10
119 10
120 10
121 10
122 10
123 10
124 10
125 10
126 10
127 10
128 10
129 10
130 10
131 10
132 10
133 10
134 10
135 10
136 10
137 10
138 10
139 10
140 10
141 10
142 10
143 10
144 10
145 10
146 10
147 10
148 10
149 10
89 11
90 11
91 11
92 11
93 11
94 11
95 11
96 11
97 11
98 11
99 11
100 11
101 11
102 11
103 11
104 11
105 11
106 11
107 11
108 11
109 11
110 11
111 11
112 11
113 11
114 11
115 11
116 11
117 11
118 11
119 11
120 11
121 11
122 11
123 11
124 11
125 11
126 11
127 11
128 11
129 11
130 11
131 11
132 11
133 11
134 11
135 11
136 11
137 11
138 11
139 11
140 11
141 11
142 11
143 11
144 11
145 11
146 11
147 11
148 11
149 11
89 12
90 12
91 12
92 12
93 12
94 12
95 12
96 12
97 12
98 12
99 12
100 12
101 12
102 12
103 12
104 12
105 12
106 12
107 12
108 12
109 12
110 12
111 12
112 12
113 12
114 12
115 12
116 12
117 12
118 12
119 12
120 12
121 12
122 12
123 12
124 12
125 12
126 12
127 12
128 12
129 12
130 12
131 12
132 12
133 12
134 12
135 12
136 12
137 12
138 12
139 12
140 12
141 12
142 12
143 12
144 12
145 12
146 12
147 12
148 12
149 12
89 13
90 13
91 13
92 13
93 13
94 13
95 13
96 13
97 13
98 13
99 13
100 13
101 13
102 13
103 13
104 13
105 13
106 13
107 13
108 13
109 13
110 13
111 13
112 13
113 13
114 13
115 13
116 13
117 13
118 13
119 13
120 13
121 13
122 13
123 13
124 13
125 13
126 13
127 13
128 13
129 13
130 13
131 13
132 13
133 13
134 13
135 13
136 13
137 13
138 13
139 13
140 13
141 13
142 13
143 13
144 13
145 13
146 13
147 13
148 13
149 13
89 14
90 14
91 14
92 14
93 14
94 14
95 14
96 14
97 14
98 14
99 14
100 14
101 14
102 14
103 14
104 14
105 14
106 14
107 14
108 14
109 14
110 14
111 14
112 14
113 14
114 14
115 14
116 14
117 14
118 14
119 14
120 14
121 14
122 14
123 14
124 14
125 14
126 14
127 14
128 14
129 14
130 14
131 14
132 14
133 14
134 14
135 14
136 14
137 14
138 14
139 14
140 14
141 14
142 14
143 14
144 14
145 14
146 14
147 14
148 14
149 14
89 15
90 15
91 15
92 15
93 15
94 15
95 15
96 15
97 15
98 15
99 15
100 15
101 15
102 15
103 15
104 15
105 15
106 15
107 15
108 15
109 15
110 15
111 15
112 15
113 15
114 15
115 15
116 15
117 15
118 15
119 15
120 15
121 15
122 15
123 15
124 15
125 15
126 15
127 15
128 15
129 15
130 15
131 15
132 15
133 15
134 15
135 15
136 15
137 15
138 15
139 15
140 15
141 15
142 15
143 15
144 15
145 15
146 15
147 15
148 15
149 15
89 16
90 16
91 16
92 16
93 16
94 16
95 16
96 16
97 16
98 16
99 16
100 16
101 16
102 16
103 16
104 16
105 16
106 16
107 16
108 16
109 16
110 16
111 16
112 16
113 16
114 16
115 16
116 16
117 16
118 16
119 16
120 16
121 16
122 16
123 16
124 16
125 16
126 16
127 16
128 16
129 16
130 16
131 16
132 16
133 16
134 16
135 16
136 16
137 16
138 16
139 16
140 16
141 16
142 16
143 16
144 16
145 16
146 16
147 16
148 16
149 16
89 17
90 17
91 17
92 17
93 17
94 17
95 17
96 17
97 17
98 17
99 17
100 17
101 17
102 17
103 17
104 17
105 17
106 17
107 17
108 17
109 17
110 17
111 17
112 17
113 17
114 17
115 17
116 17
117 17
118 17
119 17
120 17
121 17
122 17
123 17
124 17
125 17
126 17
127 17
128 17
129 17
130 17
131 17
132 17
133 17
134 17
135 17
136 17
137 17
138 17
139 17
140 17
141 17
142 17
143 17
144 17
145 17
146 17
147 17
148 17
149 17
89 18
90 18
91 18
92 18
93 18
94 18
95 18
96 18
97 18
98 18
99 18
100 18
101 18
102 18
103 18
104 18
105 18
106 18
107 18
108 18
109 18
110 18
111 18
112 18
113 18
114 18
115 18
116 18
117 18
118 18
119 18
120 18
121 18
122 18
123 18
124 18
125 18
126 18
127 18
128 18
129 18
130 18
131 18
132 18
133 18
134 18
135 18
136 18
137 18
138 18
139 18
140 18
141 18
142 18
143 18
144 18
145 18
146 18
147 18
148 18
149 18
89 19
90 19
91 19
92 19
93 19
94 19
95 19
96 19
97 19
98 19
99 19
100 19
101 19
102 19
103 19
104 19
105 19
106 19
107 19
108 19
109 19
110 19
111 19
112 19
113 19
114 19
115 19
116 19
117 19
118 19
119 19
120 19
121 19
122 19
123 19
124 19
125 19
126 19
127 19
128 19
129 19
130 19
131 19
132 19
133 19
134 19
135 19
136 19
137 19
138 19
139 19
140 19
141 19
142 19
143 19
144 19
145 19
146 19
147 19
148 19
149 19
89 20
90 20
91 20
92 20
93 20
94 20
95 20
96 20
97 20
98 20
99 20
100 20
101 20
102 20
103 20
104 20
105 20
106 20
107 20
108 20
109 20
110 20
111 20
112 20
113 20
114 20
115 20
116 20
117 20
118 20
119 20
120 20
121 20
122 20
123 20
124 20
125 20
126 20
127 20
128 20
129 20
130 20
131 20
132 20
133 20
134 20
135 20
136 20
137 20
138 20
139 20
140 20
141 20
142 20
143 20
144 20
145 20
146 20
147 20
148 20
149 20
89 21
90 21
91 21
92 21
93 21
94 21
95 21
96 21
97 21
98 21
99 21
100 21
101 21
102 21
103 21
104 21
105 21
106 21
107 21
108 21
109 21
110 21
111 21
112 21
113 21
114 21
115 21
116 21
117 21
118 21
119 21
120 21
121 21
122 21
123 21
124 21
125 21
126 21
127 21
128 21
129 21
130 21
131 21
132 21
133 21
134 21
135 21
136 21
137 21
138 21
139 21
140 21
141 21
142 21
143 21
144 21
145 21
146 21
147 21
148 21
149 21
89 22
90 22
91 22
92 22
93 22
94 22
95 22
96 22
97 22
98 22
99 22
100 22
101 22
102 22
103 22
104 22
105 22
106 22
107 22
108 22
109 22
110 22
111 22
112 22
113 22
114 22
115 22
116 22
117 22
118 22
119 22
120 22
121 22
122 22
123 22
124 22
125 22
126 22
127 22
128 22
129 22
130 22
131 22
132 22
133 22
134 22
135 22
136 22
137 22
138 22
139 22
140 22
141 22
142 22
143 22
144 22
145 22
146 22
147 22
148 22
149 22
89 23
90 23
91 23
92 23
93 23
94 23
95 23
96 23
97 23
98 23
99 23
100 23
101 23
102 23
103 23
104 23
105 23
106 23
107 23
108 23
109 23
110 23
111 23
112 23
113 23
114 23
115 23
116 23
117 23
118 23
119 23
120 23
121 23
122 23
123 23
124 23
125 23
126 23
127 23
128 23
129 23
130 23
131 23
132 23
133 23
134 23
135 23
136 23
137 23
138 23
139 23
140 23
141 23
142 23
143 23
144 23
145 23
146 23
147 23
148 23
149 23
89 24
90 24
91 24
92 24
93 24
94 24
95 24
96 24
97 24
98 24
99 24
100 24
101 24
102 24
103 24
104 24
105 24
106 24
107 24
108 24
109 24
110 24
111 24
112 24
113 24
114 24
115 24
116 24
117 24
118 24
119 24
120 24
121 24
122 24
123 24
124 24
125 24
126 24
127 24
128 24
129 24
130 24
131 24
132 24
133 24
134 24
135 24
136 24
137 24
138 24
139 24
140 24
141 24
142 24
143 24
144 24
145 24
146 24
147 24
148 24
149 24
89 25
90 25
91 25
92 25
93 25
94 25
95 25
96 25
97 25
98 25
99 25
100 25
101 25
102 25
103 25
104 25
105 25
106 25
107 25
108 25
109 25
110 25
111 25
112 25
113 25
114 25
115 25
116 25
117 25
118 25
119 25
120 25
121 25
122 25
123 25
124 25
125 25
126 25
127 25
128 25
129 25
130 25
131 25
132 25
133 25
134 25
135 25
136 25
137 25
138 25
139 25
140 25
141 25
142 25
143 25
144 25
145 25
146 25
147 25
148 25
149 25
89 26
90 26
91 26
92 26
93 26
94 26
95 26
96 26
97 26
98 26
99 26
100 26
101 26
102 26
103 26
104 26
105 26
106 26
107 26
108 26
109 26
110 26
111 26
112 26
113 26
114 26
115 26
116 26
117 26
118 26
119 26
120 26
121 26
122 26
123 26
124 26
125 26
126 26
127 26
128 26
129 26
130 26
131 26
132 26
133 26
134 26
135 26
136 26
137 26
138 26
139 26
140 26
141 26
142 26
143 26
144 26
145 26
146 26
147 26
148 26
149 26
89 27
90 27
91 27
92 27
93 27
94 27
95 27
96 27
97 27
98 27
99 27
100 27
101 27
102 27
103 27
104 27
105 27
106 27
107 27
108 27
109 27
110 27
111 27
112 27
113 27
114 27
115 27
116 27
117 27
118 27
119 27
120 27
121 27
122 27
123 27
124 27
125 27
126 27
127 27
128 27
129 27
130 27
131 27
132 27
133 27
134 27
135 27
136 27
137 27
138 27
139 27
140 27
141 27
142 27
143 27
144 27
145 27
146 27
147 27
148 27
149 27
89 28
90 28
91 28
92 28
93 28
94 28
95 28
96 28
97 28
98 28
99 28
100 28
101 28
102 28
103 28
104 28
105 28
106 28
107 28
108 28
109 28
110 28
111 28
112 28
113 28
114 28
115 28
116 28
117 28
118 28
119 28
120 28
121 28
122 28
123 28
124 28
125 28
126 28
127 28
128 28
129 28
130 28
131 28
132 28
133 28
134 28
135 28
136 28
137 28
138 28
139 28
140 28
141 28
142 28
143 28
144 28
145 28
146 28
147 28
148 28
149 28
89 29
90 29
91 29
92 29
93 29
94 29
95 29
96 29
97 29
98 29
99 29
100 29
101 29
102 29
103 29
104 29
105 29
106 29
107 29
108 29
109 29
110 29
111 29
112 29
113 29
114 29
115 29
116 29
117 29
118 29
119 29
120 29
121 29
122 29
123 29
124 29
125 29
126 29
127 29
128 29
129 29
130 29
131 29
132 29
133 29
134 29
135 29
136 29
137 29
138 29
139 29
140 29
141 29
142 29
143 29
144 29
145 29
146 29
147 29
148 29
149 29
89 30
90 30
91 30
92 30
93 30
94 30
95 30
96 30
97 30
98 30
99 30
100 30
101 30
102 30
103 30
104 30
105 30
106 30
107 30
108 30
109 30
110 30
111 30
112 30
113 30
114 30
115 30
116 30
117 30
118 30
119 30
120 30
121 30
122 30
123 30
124 30
125 30
126 30
127 30
128 30
129 30
130 30
131 30
132 30
133 30
134 30
135 30
136 30
137 30
138 30
139 30
140 30
141 30
142 30
143 30
144 30
145 30
146 30
147 30
148 30
149 30
89 31
90 31
91 31
92 31
93 31
94 31
95 31
96 31
97 31
98 31
99 31
100 31
101 31
102 31
103 31
104 31
105 31
106 31
107 31
108 31
109 31
110 31
111 31
112 31
113 31
114 31
115 31
116 31
117 31
118 31
119 31
120 31
121 31
122 31
123 31
124 31
125 31
126 31
127 31
128 31
129 31
130 31
131 31
132 31
133 31
134 31
135 31
136 31
137 31
138 31
139 31
140 31
141 31
142 31
143 31
144 31
145 31
146 31
147 31
148 31
149 31
89 32
90 32
91 32
92 32
93 32
94 32
95 32
96 32
97 32
98 32
99 32
100 32
101 32
102 32
103 32
104 32
105 32
106 32
107 32
108 32
109 32
110 32
111 32
112 32
113 32
114 32
115 32
116 32
117 32
118 32
119 32
120 32
121 32
122 32
123 32
124 32
125 32
126 32
127 32
128 32
129 32
130 32
131 32
132 32
133 32
134 32
135 32
136 32
137 32
138 32
139 32
140 32
141 32
142 32
143 32
144 32
145 32
146 32
147 32
148 32
149 32
89 33
90 33
91 33
92 33
93 33
94 33
95 33
96 33
97 33
98 33
99 33
100 33
101 33
102 33
103 33
104 33
105 33
106 33
107 33
108 33
109 33
110 33
111 33
112 33
113 33
114 33
115 33
116 33
117 33
118 33
119 33
120 33
121 33
122 33
123 33
124 33
125 33
126 33
127 33
128 33
129 33
130 33
131 33
132 33
133 33
134 33
135 33
136 33
137 33
138 33
139 33
140 33
141 33
142 33
143 33
144 33
145 33
146 33
147 33
148 33
149 33
89 34
90 34
91 34
92 34
93 34
94 34
95 34
96 34
97 34
98 34
99 34
100 34
101 34
102 34
103 34
104 34
105 34
106 34
107 34
108 34
109 34
110 34
111 34
112 34
113 34
114 34
115 34
116 34
117 34
118 34
119 34
120 34
121 34
122 34
123 34
124 34
125 34
126 34
127 34
128 34
129 34
130 34
131 34
132 34
133 34
134 34
135 34
136 34
137 34
138 34
139 34
140 34
141 34
142 34
143 34
144 34
145 34
146 34
147 34
148 34
149 34
89 35
90 35
91 35
92 35
93 35
94 35
95 35
96 35
97 35
98 35
99 35
100 35
101 35
102 35
103 35
104 35
105 35
106 35
107 35
108 35
109 35
110 35
111 35
112 35
113 35
114 35
115 35
116 35
117 35
118 35
119 35
120 35
121 35
122 35
123 35
124 35
125 35
126 35
127 35
128 35
129 35
130 35
131 35
132 35
133 35
134 35
135 35
136 35
137 35
138 35
139 35
140 35
141 35
142 35
143 35
144 35
145 35
146 35
147 35
148 35
149 35
89 36
90 36
91 36
92 36
93 36
94 36
95 36
96 36
97 36
98 36
99 36
100 36
101 36
102 36
103 36
104 36
105 36
106 36
107 36
108 36
109 36
110 36
111 36
112 36
113 36
114 36
115 36
116 36
117 36
118 36
119 36
120 36
121 36
122 36
123 36
124 36
125 36
126 36
127 36
128 36
129 36
130 36
131 36
132 36
133 36
134 36
135 36
136 36
137 36
138 36
139 36
140 36
141 36
142 36
143 36
144 36
145 36
146 36
147 36
148 36
149 36
89 37
90 37
91 37
92 37
93 37
94 37
95 37
96 37
97 37
98 37
99 37
100 37
101 37
102 37
103 37
104 37
105 37
106 37
107 37
108 37
109 37
110 37
111 37
112 37
113 37
114 37
115 37
116 37
117 37
118 37
119 37
120 37
121 37
122 37
123 37
124 37
125 37
126 37
127 37
128 37
129 37
130 37
131 37
132 37
133 37
134 37
135 37
136 37
137 37
138 37
139 37
140 37
141 37
142 37
143 37
144 37
145 37
146 37
147 37
148 37
149 37
89 38
90 38
91 38
92 38
93 38
94 38
95 38
96 38
97 38
98 38
99 38
100 38
101 38
102 38
103 38
104 38
105 38
106 38
107 38
108 38
109 38
110 38
111 38
112 38
113 38
114 38
115 38
116 38
117 38
118 38
119 38
120 38
121 38
122 38
123 38
124 38
125 38
126 38
127 38
128 38
129 38
130 38
131 38
132 38
133 38
134 38
135 38
136 38
137 38
138 38
139 38
140 38
141 38
142 38
143 38
144 38
145 38
146 38
147 38
148 38
149 38
89 39
90 39
91 39
92 39
93 39
94 39
95 39
96 39
97 39
98 39
99 39
100 39
101 39
102 39
103 39
104 39
105 39
106 39
107 39
108 39
109 39
110 39
111 39
112 39
113 39
114 39
115 39
116 39
117 39
118 39
119 39
120 39
121 39
122 39
123 39
124 39
125 39
126 39
127 39
128 39
129 39
130 39
131 39
132 39
133 39
134 39
135 39
136 39
137 39
138 39
139 39
140 39
141 39
142 39
143 39
144 39
145 39
146 39
147 39
148 39
149 39
89 40
90 40
91 40
92 40
93 40
94 40
95 40
96 40
97 40
98 40
99 40
100 40
101 40
102 40
103 40
104 40
105 40
106 40
107 40
108 40
109 40
110 40
111 40
112 40
113 40
114 40
115 40
116 40
117 40
118 40
119 40
120 40
121 40
122 40
123 40
124 40
125 40
126 40
127 40
128 40
129 40
130 40
131 40
132 40
133 40
134 40
135 40
136 40
137 40
138 40
139 40
140 40
141 40
142 40
143 40
144 40
145 40
146 40
147 40
148 40
149 40
89 41
90 41
91 41
92 41
93 41
94 41
95 41
96 41
97 41
98 41
99 41
100 41
101 41
102 41
103 41
104 41
105 41
106 41
107 41
108 41
109 41
110 41
111 41
112 41
113 41
114 41
115 41
116 41
117 41
118 41
119 41
120 41
121 41
122 41
123 41
124 41
125 41
126 41
127 41
128 41
129 41
130 41
131 41
132 41
133 41
134 41
135 41
136 41
137 41
138 41
139 41
140 41
141 41
142 41
143 41
144 41
145 41
146 41
147 41
148 41
149 41
89 42
90 42
91 42
92 42
93 42
94 42
95 42
96 42
97 42
98 42
99 42
100 42
101 42
102 42
103 42
104 42
105 42
106 42
107 42
108 42
109 42
110 42
111 42
112 42
113 42
114 42
115 42
116 42
117 42
118 42
119 42
120 42
121 42
122 42
123 42
124 42
125 42
126 42
127 42
128 42
129 42
130 42
131 42
132 42
133 42
134 42
135 42
136 42
137 42
138 42
139 42
140 42
141 42
142 42
143 42
144 42
145 42
146 42
147 42
148 42
149 42
89 43
90 43
91 43
92 43
93 43
94 43
95 43
96 43
97 43
98 43
99 43
100 43
101 43
102 43
103 43
104 43
105 43
106 43
107 43
108 43
109 43
110 43
111 43
112 43
113 43
114 43
115 43
116 43
117 43
118 43
119 43
120 43
121 43
122 43
123 43
124 43
125 43
126 43
127 43
128 43
129 43
130 43
131 43
132 43
133 43
134 43
135 43
136 43
137 43
138 43
139 43
140 43
141 43
142 43
143 43
144 43
145 43
146 43
147 43
148 43
149 43
89 44
90 44
91 44
92 44
93 44
94 44
95 44
96 44
97 44
98 44
99 44
100 44
101 44
102 44
103 44
104 44
105 44
106 44
107 44
108 44
109 44
110 44
111 44
112 44
113 44
114 44
115 44
116 44
117 44
118 44
119 44
120 44
121 44
122 44
123 44
124 44
125 44
126 44
127 44
128 44
129 44
130 44
131 44
132 44
133 44
134 44
135 44
136 44
137 44
138 44
139 44
140 44
141 44
142 44
143 44
144 44
145 44
146 44
147 44
148 44
149 44
194 98
195 98
196 98
197 98
198 98
199 98
200 98
201 98
202 98
203 98
204 98
205 98
206 98
207 98
208 98
209 98
210 98
211 98
212 98
213 98
214 98
215 98
216 98
217 98
218 98
219 98
220 98
221 98
222 98
223 98
224 98
225 98
226 98
227 98
228 98
229 98
230 98
231 98
232 98
233 98
234 98
235 98
236 98
237 98
238 98
239 98
240 98
241 98
242 98
243 98
244 98
245 98
246 98
247 98
248 98
249 98
250 98
251 98
252 98
253 98
254 98
255 98
256 98
257 98
258 98
259 98
260 98
261 98
262 98
263 98
264 98
265 98
266 98
267 98
268 98
269 98
270 98
271 98
272 98
273 98
274 98
275 98
276 98
277 98
278 98
279 98
280 98
281 98
282 98
283 98
284 98
285 98
286 98
287 98
288 98
289 98
290 98
291 98
292 98
293 98
294 98
295 98
296 98
297 98
298 98
299 98
300 98
301 98
194 99
195 99
196 99
197 99
198 99
199 99
200 99
201 99
202 99
203 99
204 99
205 99
206 99
207 99
208 99
209 99
210 99
211 99
212 99
213 99
214 99
215 99
216 99
217 99
218 99
219 99
220 99
221 99
222 99
223 99
224 99
225 99
226 99
227 99
228 99
229 99
230 99
231 99
232 99
233 99
234 99
235 99
236 99
237 99
238 99
239 99
240 99
241 99
242 99
243 99
244 99
245 99
246 99
247 99
248 99
249 99
250 99
251 99
252 99
253 99
254 99
255 99
256 99
257 99
258 99
259 99
260 99
261 99
262 99
263 99
264 99
265 99
266 99
267 99
268 99
269 99
270 99
271 99
272 99
273 99
274 99
275 99
276 99
277 99
278 99
279 99
280 99
281 99
282 99
283 99
284 99
285 99
286 99
287 99
288 99
289 99
290 99
291 99
292 99
293 99
294 99
295 99
296 99
297 99
298 99
299 99
300 99
301 99
194 100
195 100
196 100
197 100
198 100
199 100
200 100
201 100
202 100
203 100
204 100
205 100
206 100
207 100
208 100
209 100
210 100
211 100
212 100
213 100
214 100
215 100
216 100
217 100
218 100
219 100
220 100
221 100
222 100
223 100
224 100
225 100
226 100
227 100
228 100
229 100
230 100
231 100
232 100
233 100
234 100
235 100
236 100
237 100
238 100
239 100
240 100
241 100
242 100
243 100
244 100
245 100
246 100
247 100
248 100
249 100
250 100
251 100
252 100
253 100
254 100
255 100
256 100
257 100
258 100
259 100
260 100
261 100
262 100
263 100
264 100
265 100
266 100
267 100
268 100
269 100
270 100
271 100
272 100
273 100
274 100
275 100
276 100
277 100
278 100
279 100
280 100
281 100
282 100
283 100
284 100
285 100
286 100
287 100
288 100
289 100
290 100
291 100
292 100
293 100
294 100
295 100
296 100
297 100
298 100
299 100
300 100
301 100
194 101
195 101
196 101
197 101
198 101
199 101
200 101
201 101
202 101
203 101
204 101
205 101
206 101
207 101
208 101
209 101
210 101
211 101
212 101
213 101
214 101
215 101
216 101
217 101
218 101
219 101
220 101
221 101
222 101
223 101
224 101
225 101
226 101
227 101
228 101
229 101
230 101
231 101
232 101
233 101
234 101
235 101
236 101
237 101
238 101
239 101
240 101
241 101
242 101
243 101
244 101
245 101
246 101
247 101
248 101
249 101
250 101
251 101
252 101
253 101
254 101
255 101
256 101
257 101
258 101
259 101
260 101
261 101
262 101
263 101
264 101
265 101
266 101
267 101
268 101
269 101
270 101
271 101
272 101
273 101
274 101
275 101
276 101
277 101
278 101
279 101
280 101
281 101
282 101
283 101
284 101
285 101
286 101
287 101
288 101
289 101
290 101
291 101
292 101
293 101
294 101
295 101
296 101
297 101
298 101
299 101
300 101
301 101
194 102
195 102
196 102
197 102
198 102
199 102
200 102
201 102
202 102
203 102
204 102
205 102
206 102
207 102
208 102
209 102
210 102
211 102
212 102
213 102
214 102
215 102
216 102
217 102
218 102
219 102
220 102
221 102
222 102
223 102
224 102
225 102
226 102
227 102
228 102
229 102
230 102
231 102
232 102
233 102
234 102
235 102
236 102
237 102
238 102
239 102
240 102
241 102
242 102
243 102
244 102
245 102
246 102
247 102
248 102
249 102
250 102
251 102
252 102
253 102
254 102
255 102
256 102
257 102
258 102
259 102
260 102
261 102
262 102
263 102
264 102
265 102
266 102
267 102
268 102
269 102
270 102
271 102
272 102
273 102
274 102
275 102
276 102
277 102
278 102
279 102
280 102
281 102
282 102
283 102
284 102
285 102
286 102
287 102
288 102
289 102
290 102
291 102
292 102
293 102
294 102
295 102
296 102
297 102
298 102
299 102
300 102
301 102
194 103
195 103
196 103
197 103
198 103
199 103
200 103
201 103
202 103
203 103
204 103
205 103
206 103
207 103
208 103
209 103
210 103
211 103
212 103
213 103
214 103
215 103
216 103
217 103
218 103
219 103
220 103
221 103
222 103
223 103
224 103
225 103
226 103
227 103
228 103
229 103
230 103
231 103
232 103
233 103
234 103
235 103
236 103
237 103
238 103
239 103
240 103
241 103
242 103
243 103
244 103
245 103
246 103
247 103
248 103
249 103
250 103
251 103
252 103
253 103
254 103
255 103
256 103
257 103
258 103
259 103
260 103
261 103
262 103
263 103
264 103
265 103
266 103
267 103
268 103
269 103
270 103
271 103
272 103
273 103
274 103
275 103
276 103
277 103
278 103
279 103
280 103
281 103
282 103
283 103
284 103
285 103
286 103
287 103
288 103
289 103
290 103
291 103
292 103
293 103
294 103
295 103
296 103
297 103
298 103
299 103
300 103
301 103
194 104
195 104
196 104
197 104
198 104
199 104
200 104
201 104
202 104
203 104
204 104
205 104
206 104
207 104
208 104
209 104
210 104
211 104
212 104
213 104
214 104
215 104
216 104
217 104
218 104
219 104
220 104
221 104
222 104
223 104
224 104
225 104
226 104
227 104
228 104
229 104
230 104
231 104
232 104
233 104
234 104
235 104
236 104
237 104
238 104
239 104
240 104
241 104
242 104
243 104
244 104
245 104
246 104
247 104
248 104
249 104
250 104
251 104
252 104
253 104
254 104
255 104
256 104
257 104
258 104
259 104
260 104
261 104
262 104
263 104
264 104
265 104
266 104
267 104
268 104
269 104
270 104
271 104
272 104
273 104
274 104
275 104
276 104
277 104
278 104
279 104
280 104
281 104
282 104
283 104
284 104
285 104
286 104
287 104
288 104
289 104
290 104
291 104
292 104
293 104
294 104
295 104
296 104
297 104
298 104
299 104
300 104
301 104
194 105
195 105
196 105
197 105
198 105
199 105
200 105
201 105
202 105
203 105
204 105
205 105
206 105
207 105
208 105
209 105
210 105
211 105
212 105
213 105
214 105
215 105
216 105
217 105
218 105
219 105
220 105
221 105
222 105
223 105
224 105
225 105
226 105
227 105
228 105
229 105
230 105
231 105
232 105
233 105
234 105
235 105
236 105
237 105
238 105
239 105
240 105
241 105
242 105
243 105
244 105
245 105
246 105
247 105
248 105
249 105
250 105
251 105
252 105
253 105
254 105
255 105
256 105
257 105
258 105
259 105
260 105
261 105
262 105
263 105
264 105
265 105
266 105
267 105
268 105
269 105
270 105
271 105
272 105
273 105
274 105
275 105
276 105
277 105
278 105
279 105
280 105
281 105
282 105
283 105
284 105
285 105
286 105
287 105
288 105
289 105
290 105
291 105
292 105
293 105
294 105
295 105
296 105
297 105
298 105
299 105
300 105
301 105
194 106
195 106
196 106
197 106
198 106
199 106
200 106
201 106
202 106
203 106
204 106
205 106
206 106
207 106
208 106
209 106
210 106
211 106
212 106
213 106
214 106
215 106
216 106
217 106
218 106
219 106
220 106
221 106
222 106
223 106
224 106
225 106
226 106
227 106
228 106
229 106
230 106
231 106
232 106
233 106
234 106
235 106
236 106
237 106
238 106
239 106
240 106
241 106
242 106
243 106
244 106
245 106
246 106
247 106
248 106
249 106
250 106
251 106
252 106
253 106
254 106
255 106
256 106
257 106
258 106
259 106
260 106
261 106
262 106
263 106
264 106
265 106
266 106
267 106
268 106
269 106
270 106
271 106
272 106
273 106
274 106
275 106
276 106
277 106
278 106
279 106
280 106
281 106
282 106
283 106
284 106
285 106
286 106
287 106
288 106
289 106
290 106
291 106
292 106
293 106
294 106
295 106
296 106
297 106
298 106
299 106
300 106
301 106
194 107
195 107
196 107
197 107
198 107
199 107
200 107
201 107
202 107
203 107
204 107
205 107
206 107
207 107
208 107
209 107
210 107
211 107
212 107
213 107
214 107
215 107
216 107
217 107
218 107
219 107
220 107
221 107
222 107
223 107
224 107
225 107
226 107
227 107
228 107
229 107
230 107
231 107
232 107
233 107
234 107
235 107
236 107
237 107
238 107
239 107
240 107
241 107
242 107
243 107
244 107
245 107
246 107
247 107
248 107
249 107
250 107
251 107
252 107
253 107
254 107
255 107
256 107
257 107
258 107
259 107
260 107
261 107
262 107
263 107
264 107
265 107
266 107
267 107
268 107
269 107
270 107
271 107
272 107
273 107
274 107
275 107
276 107
277 107
278 107
279 107
280 107
281 107
282 107
283 107
284 107
285 107
286 107
287 107
288 107
289 107
290 107
291 107
292 107
293 107
294 107
295 107
296 107
297 107
298 107
299 107
300 107
301 107
194 108
195 108
196 108
197 108
198 108
199 108
200 108
201 108
202 108
203 108
204 108
205 108
206 108
207 108
208 108
209 108
210 108
211 108
212 108
213 108
214 108
215 108
216 108
217 108
218 108
219 108
220 108
221 108
222 108
223 108
224 108
225 108
226 108
227 108
228 108
229 108
230 108
231 108
232 108
233 108
234 108
235 108
236 108
237 108
238 108
239 108
240 108
241 108
242 108
243 108
244 108
245 108
246 108
247 108
248 108
249 108
250 108
251 108
252 108
253 108
254 108
255 108
256 108
257 108
258 108
259 108
260 108
261 108
262 108
263 108
264 108
265 108
266 108
267 108
268 108
269 108
270 108
271 108
272 108
273 108
274 108
275 108
276 108
277 108
278 108
279 108
280 108
281 108
282 108
283 108
284 108
285 108
286 108
287 108
288 108
289 108
290 108
291 108
292 108
293 108
294 108
295 108
296 108
297 108
298 108
299 108
300 108
301 108
194 109
195 109
196 109
197 109
198 109
199 109
200 109
201 109
202 109
203 109
204 109
205 109
206 109
207 109
208 109
209 109
210 109
211 109
212 109
213 109
214 109
215 109
216 109
217 109
218 109
219 109
220 109
221 109
222 109
223 109
224 109
225 109
226 109
227 109
228 109
229 109
230 109
231 109
232 109
233 109
234 109
235 109
236 109
237 109
238 109
239 109
240 109
241 109
242 109
243 109
244 109
245 109
246 109
247 109
248 109
249 109
250 109
251 109
252 109
253 109
254 109
255 109
256 109
257 109
258 109
259 109
260 109
261 109
262 109
263 109
264 109
265 109
266 109
267 109
268 109
269 109
270 109
271 109
272 109
273 109
274 109
275 109
276 109
277 109
278 109
279 109
280 109
281 109
282 109
283 109
284 109
285 109
286 109
287 109
288 109
289 109
290 109
291 109
292 109
293 109
294 109
295 109
296 109
297 109
298 109
299 109
300 109
301 109
194 110
195 110
196 110
197 110
198 110
199 110
200 110
201 110
202 110
203 110
204 110
205 110
206 110
207 110
208 110
209 110
210 110
211 110
212 110
213 110
214 110
215 110
216 110
217 110
218 110
219 110
220 110
221 110
222 110
223 110
224 110
225 110
226 110
227 110
228 110
229 110
230 110
231 110
232 110
233 110
234 110
235 110
236 110
237 110
238 110
239 110
240 110
241 110
242 110
243 110
244 110
245 110
246 110
247 110
248 110
249 110
250 110
251 110
252 110
253 110
254 110
255 110
256 110
257 110
258 110
259 110
260 110
261 110
262 110
263 110
264 110
265 110
266 110
267 110
268 110
269 110
270 110
271 110
272 110
273 110
274 110
275 110
276 110
277 110
278 110
279 110
280 110
281 110
282 110
283 110
284 110
285 110
286 110
287 110
288 110
289 110
290 110
291 110
292 110
293 110
294 110
295 110
296 110
297 110
298 110
299 110
300 110
301 110
194 111
195 111
196 111
197 111
198 111
199 111
200 111
201 111
202 111
203 111
204 111
205 111
206 111
207 111
208 111
209 111
210 111
211 111
212 111
213 111
214 111
215 111
216 111
217 111
218 111
219 111
220 111
221 111
222 111
223 111
224 111
225 111
226 111
227 111
228 111
229 111
230 111
231 111
232 111
233 111
234 111
235 111
236 111
237 111
238 111
239 111
240 111
241 111
242 111
243 111
244 111
245 111
246 111
247 111
248 111
249 111
250 111
251 111
252 111
253 111
254 111
255 111
256 111
257 111
258 111
259 111
260 111
261 111
262 111
263 111
264 111
265 111
266 111
267 111
268 111
269 111
270 111
271 111
272 111
273 111
274 111
275 111
276 111
277 111
278 111
279 111
280 111
281 111
282 111
283 111
284 111
285 111
286 111
287 111
288 111
289 111
290 111
291 111
292 111
293 111
294 111
295 111
296 111
297 111
298 111
299 111
300 111
301 111
194 112
195 112
196 112
197 112
198 112
199 112
200 112
201 112
202 112
203 112
204 112
205 112
206 112
207 112
208 112
209 112
210 112
211 112
212 112
213 112
214 112
215 112
216 112
217 112
218 112
219 112
220 112
221 112
222 112
223 112
224 112
225 112
226 112
227 112
228 112
229 112
230 112
231 112
232 112
233 112
234 112
235 112
236 112
237 112
238 112
239 112
240 112
241 112
242 112
243 112
244 112
245 112
246 112
247 112
248 112
249 112
250 112
251 112
252 112
253 112
254 112
255 112
256 112
257 112
258 112
259 112
260 112
261 112
262 112
263 112
264 112
265 112
266 112
267 112
268 112
269 112
270 112
271 112
272 112
273 112
274 112
275 112
276 112
277 112
278 112
279 112
280 112
281 112
282 112
283 112
284 112
285 112
286 112
287 112
288 112
289 112
290 112
291 112
292 112
293 112
294 112
295 112
296 112
297 112
298 112
299 112
300 112
301 112
194 113
195 113
196 113
197 113
198 113
199 113
200 113
201 113
202 113
203 113
204 113
205 113
206 113
207 113
208 113
209 113
210 113
211 113
212 113
213 113
214 113
215 113
216 113
217 113
218 113
219 113
220 113
221 113
222 113
223 113
224 113
225 113
226 113
227 113
228 113
229 113
230 113
231 113
232 113
233 113
234 113
235 113
236 113
237 113
238 113
239 113
240 113
241 113
242 113
243 113
244 113
245 113
246 113
247 113
248 113
249 113
250 113
251 113
252 113
253 113
254 113
255 113
256 113
257 113
258 113
259 113
260 113
261 113
262 113
263 113
264 113
265 113
266 113
267 113
268 113
269 113
270 113
271 113
272 113
273 113
274 113
275 113
276 113
277 113
278 113
279 113
280 113
281 113
282 113
283 113
284 113
285 113
286 113
287 113
288 113
289 113
290 113
291 113
292 113
293 113
294 113
295 113
296 113
297 113
298 113
299 113
300 113
301 113
194 114
195 114
196 114
197 114
198 114
199 114
200 114
201 114
202 114
203 114
204 114
205 114
206 114
207 114
208 114
209 114
210 114
211 114
212 114
213 114
214 114
215 114
216 114
217 114
218 114
219 114
220 114
221 114
222 114
223 114
224 114
225 114
226 114
227 114
228 114
229 114
230 114
231 114
232 114
233 114
234 114
235 114
236 114
237 114
238 114
239 114
240 114
241 114
242 114
243 114
244 114
245 114
246 114
247 114
248 114
249 114
250 114
251 114
252 114
253 114
254 114
255 114
256 114
257 114
258 114
259 114
260 114
261 114
262 114
263 114
264 114
265 114
266 114
267 114
268 114
269 114
270 114
271 114
272 114
273 114
274 114
275 114
276 114
277 114
278 114
279 114
280 114
281 114
282 114
283 114
284 114
285 114
286 114
287 114
288 114
289 114
290 114
291 114
292 114
293 114
294 114
295 114
296 114
297 114
298 114
299 114
300 114
301 114
194 115
195 115
196 115
197 115
198 115
199 115
200 115
201 115
202 115
203 115
204 115
205 115
206 115
207 115
208 115
209 115
210 115
211 115
212 115
213 115
214 115
215 115
216 115
217 115
218 115
219 115
220 115
221 115
222 115
223 115
224 115
225 115
226 115
227 115
228 115
229 115
230 115
231 115
232 115
233 115
234 115
235 115
236 115
237 115
238 115
239 115
240 115
241 115
242 115
243 115
244 115
245 115
246 115
247 115
248 115
249 115
250 115
251 115
252 115
253 115
254 115
255 115
256 115
257 115
258 115
259 115
260 115
261 115
262 115
263 115
264 115
265 115
266 115
267 115
268 115
269 115
270 115
271 115
272 115
273 115
274 115
275 115
276 115
277 115
278 115
279 115
280 115
281 115
282 115
283 115
284 115
285 115
286 115
287 115
288 115
289 115
290 115
291 115
292 115
293 115
294 115
295 115
296 115
297 115
298 115
299 115
300 115
301 115
194 116
195 116
196 116
197 116
198 116
199 116
200 116
201 116
202 116
203 116
204 116
205 116
206 116
207 116
208 116
209 116
210 116
211 116
212 116
213 116
214 116
215 116
216 116
217 116
218 116
219 116
220 116
221 116
222 116
223 116
224 116
225 116
226 116
227 116
228 116
229 116
230 116
231 116
232 116
233 116
234 116
235 116
236 116
237 116
238 116
239 116
240 116
241 116
242 116
243 116
244 116
245 116
246 116
247 116
248 116
249 116
250 116
251 116
252 116
253 116
254 116
255 116
256 116
257 116
258 116
259 116
260 116
261 116
262 116
263 116
264 116
265 116
266 116
267 116
268 116
269 116
270 116
271 116
272 116
273 116
274 116
275 116
276 116
277 116
278 116
279 116
280 116
281 116
282 116
283 116
284 116
285 116
286 116
287 116
288 116
289 116
290 116
291 116
292 116
293 116
294 116
295 116
296 116
297 116
298 116
299 116
300 116
301 116
194 117
195 117
196 117
197 117
198 117
199 117
200 117
201 117
202 117
203 117
204 117
205 117
206 117
207 117
208 117
209 117
210 117
211 117
212 117
213 117
214 117
215 117
216 117
217 117
218 117
219 117
220 117
221 117
222 117
223 117
224 117
225 117
226 117
227 117
228 117
229 117
230 117
231 117
232 117
233 117
234 117
235 117
236 117
237 117
238 117
239 117
240 117
241 117
242 117
243 117
244 117
245 117
246 117
247 117
248 117
249 117
250 117
251 117
252 117
253 117
254 117
255 117
256 117
257 117
258 117
259 117
260 117
261 117
262 117
263 117
264 117
265 117
266 117
267 117
268 117
269 117
270 117
271 117
272 117
273 117
274 117
275 117
276 117
277 117
278 117
279 117
280 117
281 117
282 117
283 117
284 117
285 117
286 117
287 117
288 117
289 117
290 117
291 117
292 117
293 117
294 117
295 117
296 117
297 117
298 117
299 117
300 117
301 117
194 118
195 118
196 118
197 118
198 118
199 118
200 118
201 118
202 118
203 118
204 118
205 118
206 118
207 118
208 118
209 118
210 118
211 118
212 118
213 118
214 118
215 118
216 118
217 118
218 118
219 118
220 118
221 118
222 118
223 118
224 118
225 118
226 118
227 118
228 118
229 118
230 118
231 118
232 118
233 118
234 118
235 118
236 118
237 118
238 118
239 118
240 118
241 118
242 118
243 118
244 118
245 118
246 118
247 118
248 118
249 118
250 118
251 118
252 118
253 118
254 118
255 118
256 118
257 118
258 118
259 118
260 118
261 118
262 118
263 118
264 118
265 118
266 118
267 118
268 118
269 118
270 118
271 118
272 118
273 118
274 118
275 118
276 118
277 118
278 118
279 118
280 118
281 118
282 118
283 118
284 118
285 118
286 118
287 118
288 118
289 118
290 118
291 118
292 118
293 118
294 118
295 118
296 118
297 118
298 118
299 118
300 118
301 118
194 119
195 119
196 119
197 119
198 119
199 119
200 119
201 119
202 119
203 119
204 119
205 119
206 119
207 119
208 119
209 119
210 119
211 119
212 119
213 119
214 119
215 119
216 119
217 119
218 119
219 119
220 119
221 119
222 119
223 119
224 119
225 119
226 119
227 119
228 119
229 119
230 119
231 119
232 119
233 119
234 119
235 119
236 119
237 119
238 119
239 119
240 119
241 119
242 119
243 119
244 119
245 119
246 119
247 119
248 119
249 119
250 119
251 119
252 119
253 119
254 119
255 119
256 119
257 119
258 119
259 119
260 119
261 119
262 119
263 119
264 119
265 119
266 119
267 119
268 119
269 119
270 119
271 119
272 119
273 119
274 119
275 119
276 119
277 119
278 119
279 119
280 119
281 119
282 119
283 119
284 119
285 119
286 119
287 119
288 119
289 119
290 119
291 119
292 119
293 119
294 119
295 119
296 119
297 119
298 119
299 119
300 119
301 119
194 120
195 120
196 120
197 120
198 120
199 120
200 120
201 120
202 120
203 120
204 120
205 120
206 120
207 120
208 120
209 120
210 120
211 120
212 120
213 120
214 120
215 120
216 120
217 120
218 120
219 120
220 120
221 120
222 120
223 120
224 120
225 120
226 120
227 120
228 120
229 120
230 120
231 120
232 120
233 120
234 120
235 120
236 120
237 120
238 120
239 120
240 120
241 120
242 120
243 120
244 120
245 120
246 120
247 120
248 120
249 120
250 120
251 120
252 120
253 120
254 120
255 120
256 120
257 120
258 120
259 120
260 120
261 120
262 120
263 120
264 120
265 120
266 120
267 120
268 120
269 120
270 120
271 120
272 120
273 120
274 120
275 120
276 120
277 120
278 120
279 120
280 120
281 120
282 120
283 120
284 120
285 120
286 120
287 120
288 120
289 120
290 120
291 120
292 120
293 120
294 120
295 120
296 120
297 120
298 120
299 120
300 120
301 120
194 121
195 121
196 121
197 121
198 121
199 121
200 121
201 121
202 121
203 121
204 121
205 121
206 121
207 121
208 121
209 121
210 121
211 121
212 121
213 121
214 121
215 121
216 121
217 121
218 121
219 121
220 121
221 121
222 121
223 121
224 121
225 121
226 121
227 121
228 121
229 121
230 121
231 121
232 121
233 121
234 121
235 121
236 121
237 121
238 121
239 121
240 121
241 121
242 121
243 121
244 121
245 121
246 121
247 121
248 121
249 121
250 121
251 121
252 121
253 121
254 121
255 121
256 121
257 121
258 121
259 121
260 121
261 121
262 121
263 121
264 121
265 121
266 121
267 121
268 121
269 121
270 121
271 121
272 121
273 121
274 121
275 121
276 121
277 121
278 121
279 121
280 121
281 121
282 121
283 121
284 121
285 121
286 121
287 121
288 121
289 121
290 121
291 121
292 121
293 121
294 121
295 121
296 121
297 121
298 121
299 121
300 121
301 121
194 122
195 122
196 122
197 122
198 122
199 122
200 122
201 122
202 122
203 122
204 122
205 122
206 122
207 122
208 122
209 122
210 122
211 122
212 122
213 122
214 122
215 122
216 122
217 122
218 122
219 122
220 122
221 122
222 122
223 122
224 122
225 122
226 122
227 122
228 122
229 122
230 122
231 122
232 122
233 122
234 122
235 122
236 122
237 122
238 122
239 122
240 122
241 122
242 122
243 122
244 122
245 122
246 122
247 122
248 122
249 122
250 122
251 122
252 122
253 122
254 122
255 122
256 122
257 122
258 122
259 122
260 122
261 122
262 122
263 122
264 122
265 122
266 122
267 122
268 122
269 122
270 122
271 122
272 122
273 122
274 122
275 122
276 122
277 122
278 122
279 122
280 122
281 122
282 122
283 122
284 122
285 122
286 122
287 122
288 122
289 122
290 122
291 122
292 122
293 122
294 122
295 122
296 122
297 122
298 122
299 122
300 122
301 122
194 123
195 123
196 123
197 123
198 123
199 123
200 123
201 123
202 123
203 123
204 123
205 123
206 123
207 123
208 123
209 123
210 123
211 123
212 123
213 123
214 123
215 123
216 123
217 123
218 123
219 123
220 123
221 123
222 123
223 123
224 123
225 123
226 123
227 123
228 123
229 123
230 123
231 123
232 123
233 123
234 123
235 123
236 123
237 123
238 123
239 123
240 123
241 123
242 123
243 123
244 123
245 123
246 123
247 123
248 123
249 123
250 123
251 123
252 123
253 123
254 123
255 123
256 123
257 123
258 123
259 123
260 123
261 123
262 123
263 123
264 123
265 123
266 123
267 123
268 123
269 123
270 123
271 123
272 123
273 123
274 123
275 123
276 123
277 123
278 123
279 123
280 123
281 123
282 123
283 123
284 123
285 123
286 123
287 123
288 123
289 123
290 123
291 123
292 123
293 123
294 123
295 123
296 123
297 123
298 123
299 123
300 123
301 123
194 124
195 124
196 124
197 124
198 124
199 124
200 124
201 124
202 124
203 124
204 124
205 124
206 124
207 124
208 124
209 124
210 124
211 124
212 124
213 124
214 124
215 124
216 124
217 124
218 124
219 124
220 124
221 124
222 124
223 124
224 124
225 124
226 124
227 124
228 124
229 124
230 124
231 124
232 124
233 124
234 124
235 124
236 124
237 124
238 124
239 124
240 124
241 124
242 124
243 124
244 124
245 124
246 124
247 124
248 124
249 124
250 124
251 124
252 124
253 124
254 124
255 124
256 124
257 124
258 124
259 124
260 124
261 124
262 124
263 124
264 124
265 124
266 124
267 124
268 124
269 124
270 124
271 124
272 124
273 124
274 124
275 124
276 124
277 124
278 124
279 124
280 124
281 124
282 124
283 124
284 124
285 124
286 124
287 124
288 124
289 124
290 124
291 124
292 124
293 124
294 124
295 124
296 124
297 124
298 124
299 124
300 124
301 124
194 125
195 125
196 125
197 125
198 125
199 125
200 125
201 125
202 125
203 125
204 125
205 125
206 125
207 125
208 125
209 125
210 125
211 125
212 125
213 125
214 125
215 125
216 125
217 125
218 125
219 125
220 125
221 125
222 125
223 125
224 125
225 125
226 125
227 125
228 125
229 125
230 125
231 125
232 125
233 125
234 125
235 125
236 125
237 125
238 125
239 125
240 125
241 125
242 125
243 125
244 125
245 125
246 125
247 125
248 125
249 125
250 125
251 125
252 125
253 125
254 125
255 125
256 125
257 125
258 125
259 125
260 125
261 125
262 125
263 125
264 125
265 125
266 125
267 125
268 125
269 125
270 125
271 125
272 125
273 125
274 125
275 125
276 125
277 125
278 125
279 125
280 125
281 125
282 125
283 125
284 125
285 125
286 125
287 125
288 125
289 125
290 125
291 125
292 125
293 125
294 125
295 125
296 125
297 125
298 125
299 125
300 125
301 125
194 126
195 126
196 126
197 126
198 126
199 126
200 126
201 126
202 126
203 126
204 126
205 126
206 126
207 126
208 126
209 126
210 126
211 126
212 126
213 126
214 126
215 126
216 126
217 126
218 126
219 126
220 126
221 126
222 126
223 126
224 126
225 126
226 126
227 126
228 126
229 126
230 126
231 126
232 126
233 126
234 126
235 126
236 126
237 126
238 126
239 126
240 126
241 126
242 126
243 126
244 126
245 126
246 126
247 126
248 126
249 126
250 126
251 126
252 126
253 126
254 126
255 126
256 126
257 126
258 126
259 126
260 126
261 126
262 126
263 126
264 126
265 126
266 126
267 126
268 126
269 126
270 126
271 126
272 126
273 126
274 126
275 126
276 126
277 126
278 126
279 126
280 126
281 126
282 126
283 126
284 126
285 126
286 126
287 126
288 126
289 126
290 126
291 126
292 126
293 126
294 126
295 126
296 126
297 126
298 126
299 126
300 126
301 126
194 127
195 127
196 127
197 127
198 127
199 127
200 127
201 127
202 127
203 127
204 127
205 127
206 127
207 127
208 127
209 127
210 127
211 127
212 127
213 127
214 127
215 127
216 127
217 127
218 127
219 127
220 127
221 127
222 127
223 127
224 127
225 127
226 127
227 127
228 127
229 127
230 127
231 127
232 127
233 127
234 127
235 127
236 127
237 127
238 127
239 127
240 127
241 127
242 127
243 127
244 127
245 127
246 127
247 127
248 127
249 127
250 127
251 127
252 127
253 127
254 127
255 127
256 127
257 127
258 127
259 127
260 127
261 127
262 127
263 127
264 127
265 127
266 127
267 127
268 127
269 127
270 127
271 127
272 127
273 127
274 127
275 127
276 127
277 127
278 127
279 127
280 127
281 127
282 127
283 127
284 127
285 127
286 127
287 127
288 127
289 127
290 127
291 127
292 127
293 127
294 127
295 127
296 127
297 127
298 127
299 127
300 127
301 127
194 128
195 128
196 128
197 128
198 128
199 128
200 128
201 128
202 128
203 128
204 128
205 128
206 128
207 128
208 128
209 128
210 128
211 128
212 128
213 128
214 128
215 128
216 128
217 128
218 128
219 128
220 128
221 128
222 128
223 128
224 128
225 128
226 128
227 128
228 128
229 128
230 128
231 128
232 128
233 128
234 128
235 128
236 128
237 128
238 128
239 128
240 128
241 128
242 128
243 128
244 128
245 128
246 128
247 128
248 128
249 128
250 128
251 128
252 128
253 128
254 128
255 128
256 128
257 128
258 128
259 128
260 128
261 128
262 128
263 128
264 128
265 128
266 128
267 128
268 128
269 128
270 128
271 128
272 128
273 128
274 128
275 128
276 128
277 128
278 128
279 128
280 128
281 128
282 128
283 128
284 128
285 128
286 128
287 128
288 128
289 128
290 128
291 128
292 128
293 128
294 128
295 128
296 128
297 128
298 128
299 128
300 128
301 128
194 129
195 129
196 129
197 129
198 129
199 129
200 129
201 129
202 129
203 129
204 129
205 129
206 129
207 129
208 129
209 129
210 129
211 129
212 129
213 129
214 129
215 129
216 129
217 129
218 129
219 129
220 129
221 129
222 129
223 129
224 129
225 129
226 129
227 129
228 129
229 129
230 129
231 129
232 129
233 129
234 129
235 129
236 129
237 129
238 129
239 129
240 129
241 129
242 129
243 129
244 129
245 129
246 129
247 129
248 129
249 129
250 129
251 129
252 129
253 129
254 129
255 129
256 129
257 129
258 129
259 129
260 129
261 129
262 129
263 129
264 129
265 129
266 129
267 129
268 129
269 129
270 129
271 129
272 129
273 129
274 129
275 129
276 129
277 129
278 129
279 129
280 129
281 129
282 129
283 129
284 129
285 129
286 129
287 129
288 129
289 129
290 129
291 129
292 129
293 129
294 129
295 129
296 129
297 129
298 129
299 129
300 129
301 129
194 130
195 130
196 130
197 130
198 130
199 130
200 130
201 130
202 130
203 130
204 130
205 130
206 130
207 130
208 130
209 130
210 130
211 130
212 130
213 130
214 130
215 130
216 130
217 130
218 130
219 130
220 130
221 130
222 130
223 130
224 130
225 130
226 130
227 130
228 130
229 130
230 130
231 130
232 130
233 130
234 130
235 130
236 130
237 130
238 130
239 130
240 130
241 130
242 130
243 130
244 130
245 130
246 130
247 130
248 130
249 130
250 130
251 130
252 130
253 130
254 130
255 130
256 130
257 130
258 130
259 130
260 130
261 130
262 130
263 130
264 130
265 130
266 130
267 130
268 130
269 130
270 130
271 130
272 130
273 130
274 130
275 130
276 130
277 130
278 130
279 130
280 130
281 130
282 130
283 130
284 130
285 130
286 130
287 130
288 130
289 130
290 130
291 130
292 130
293 130
294 130
295 130
296 130
297 130
298 130
299 130
300 130
301 130
194 131
195 131
196 131
197 131
198 131
199 131
200 131
201 131
202 131
203 131
204 131
205 131
206 131
207 131
208 131
209 131
210 131
211 131
212 131
213 131
214 131
215 131
216 131
217 131
218 131
219 131
220 131
221 131
222 131
223 131
224 131
225 131
226 131
227 131
228 131
229 131
230 131
231 131
232 131
233 131
234 131
235 131
236 131
237 131
238 131
239 131
240 131
241 131
242 131
243 131
244 131
245 131
246 131
247 131
248 131
249 131
250 131
251 131
252 131
253 131
254 131
255 131
256 131
257 131
258 131
259 131
260 131
261 131
262 131
263 131
264 131
265 131
266 131
267 131
268 131
269 131
270 131
271 131
272 131
273 131
274 131
275 131
276 131
277 131
278 131
279 131
280 131
281 131
282 131
283 131
284 131
285 131
286 131
287 131
288 131
289 131
290 131
291 131
292 131
293 131
294 131
295 131
296 131
297 131
298 131
299 131
300 131
301 131
194 132
195 132
196 132
197 132
198 132
199 132
200 132
201 132
202 132
203 132
204 132
205 132
206 132
207 132
208 132
209 132
210 132
211 132
212 132
213 132
214 132
215 132
216 132
217 132
218 132
219 132
220 132
221 132
222 132
223 132
224 132
225 132
226 132
227 132
228 132
229 132
230 132
231 132
232 132
233 132
234 132
235 132
236 132
237 132
238 132
239 132
240 132
241 132
242 132
243 132
244 132
245 132
246 132
247 132
248 132
249 132
250 132
251 132
252 132
253 132
254 132
255 132
256 132
257 132
258 132
259 132
260 132
261 132
262 132
263 132
264 132
265 132
266 132
267 132
268 132
269 132
270 132
271 132
272 132
273 132
274 132
275 132
276 132
277 132
278 132
279 132
280 132
281 132
282 132
283 132
284 132
285 132
286 132
287 132
288 132
289 132
290 132
291 132
292 132
293 132
294 132
295 132
296 132
297 132
298 132
299 132
300 132
301 132
194 133
195 133
196 133
197 133
198 133
199 133
200 133
201 133
202 133
203 133
204 133
205 133
206 133
207 133
208 133
209 133
210 133
211 133
212 133
213 133
214 133
215 133
216 133
217 133
218 133
219 133
220 133
221 133
222 133
223 133
224 133
225 133
226 133
227 133
228 133
229 133
230 133
231 133
232 133
233 133
234 133
235 133
236 133
237 133
238 133
239 133
240 133
241 133
242 133
243 133
244 133
245 133
246 133
247 133
248 133
249 133
250 133
251 133
252 133
253 133
254 133
255 133
256 133
257 133
258 133
259 133
260 133
261 133
262 133
263 133
264 133
265 133
266 133
267 133
268 133
269 133
270 133
271 133
272 133
273 133
274 133
275 133
276 133
277 133
278 133
279 133
280 133
281 133
282 133
283 133
284 133
285 133
286 133
287 133
288 133
289 133
290 133
291 133
292 133
293 133
294 133
295 133
296 133
297 133
298 133
299 133
300 133
301 133
194 134
195 134
196 134
197 134
198 134
199 134
200 134
201 134
202 134
203 134
204 134
205 134
206 134
207 134
208 134
209 134
210 134
211 134
212 134
213 134
214 134
215 134
216 134
217 134
218 134
219 134
220 134
221 134
222 134
223 134
224 134
225 134
226 134
227 134
228 134
229 134
230 134
231 134
232 134
233 134
234 134
235 134
236 134
237 134
238 134
239 134
240 134
241 134
242 134
243 134
244 134
245 134
246 134
247 134
248 134
249 134
250 134
251 134
252 134
253 134
254 134
255 134
256 134
257 134
258 134
259 134
260 134
261 134
262 134
263 134
264 134
265 134
266 134
267 134
268 134
269 134
270 134
271 134
272 134
273 134
274 134
275 134
276 134
277 134
278 134
279 134
280 134
281 134
282 134
283 134
284 134
285 134
286 134
287 134
288 134
289 134
290 134
291 134
292 134
293 134
294 134
295 134
296 134
297 134
298 134
299 134
300 134
301 134
194 135
195 135
196 135
197 135
198 135
199 135
200 135
201 135
202 135
203 135
204 135
205 135
206 135
207 135
208 135
209 135
210 135
211 135
212 135
213 135
214 135
215 135
216 135
217 135
218 135
219 135
220 135
221 135
222 135
223 135
224 135
225 135
226 135
227 135
228 135
229 135
230 135
231 135
232 135
233 135
234 135
235 135
236 135
237 135
238 135
239 135
240 135
241 135
242 135
243 135
244 135
245 135
246 135
247 135
248 135
249 135
250 135
251 135
252 135
253 135
254 135
255 135
256 135
257 135
258 135
259 135
260 135
261 135
262 135
263 135
264 135
265 135
266 135
267 135
268 135
269 135
270 135
271 135
272 135
273 135
274 135
275 135
276 135
277 135
278 135
279 135
280 135
281 135
282 135
283 135
284 135
285 135
286 135
287 135
288 135
289 135
290 135
291 135
292 135
293 135
294 135
295 135
296 135
297 135
298 135
299 135
300 135
301 135
194 136
195 136
196 136
197 136
198 136
199 136
200 136
201 136
202 136
203 136
204 136
205 136
206 136
207 136
208 136
209 136
210 136
211 136
212 136
213 136
214 136
215 136
216 136
217 136
218 136
219 136
220 136
221 136
222 136
223 136
224 136
225 136
226 136
227 136
228 136
229 136
230 136
231 136
232 136
233 136
234 136
235 136
236 136
237 136
238 136
239 136
240 136
241 136
242 136
243 136
244 136
245 136
246 136
247 136
248 136
249 136
250 136
251 136
252 136
253 136
254 136
255 136
256 136
257 136
258 136
259 136
260 136
261 136
262 136
263 136
264 136
265 136
266 136
267 136
268 136
269 136
270 136
271 136
272 136
273 136
274 136
275 136
276 136
277 136
278 136
279 136
280 136
281 136
282 136
283 136
284 136
285 136
286 136
287 136
288 136
289 136
290 136
291 136
292 136
293 136
294 136
295 136
296 136
297 136
298 136
299 136
300 136
301 136
194 137
195 137
196 137
197 137
198 137
199 137
200 137
201 137
202 137
203 137
204 137
205 137
206 137
207 137
208 137
209 137
210 137
211 137
212 137
213 137
214 137
215 137
216 137
217 137
218 137
219 137
220 137
221 137
222 137
223 137
224 137
225 137
226 137
227 137
228 137
229 137
230 137
231 137
232 137
233 137
234 137
235 137
236 137
237 137
238 137
239 137
240 137
241 137
242 137
243 137
244 137
245 137
246 137
247 137
248 137
249 137
250 137
251 137
252 137
253 137
254 137
255 137
256 137
257 137
258 137
259 137
260 137
261 137
262 137
263 137
264 137
265 137
266 137
267 137
268 137
269 137
270 137
271 137
272 137
273 137
274 137
275 137
276 137
277 137
278 137
279 137
280 137
281 137
282 137
283 137
284 137
285 137
286 137
287 137
288 137
289 137
290 137
291 137
292 137
293 137
294 137
295 137
296 137
297 137
298 137
299 137
300 137
301 137
194 138
195 138
196 138
197 138
198 138
199 138
200 138
201 138
202 138
203 138
204 138
205 138
206 138
207 138
208 138
209 138
210 138
211 138
212 138
213 138
214 138
215 138
216 138
217 138
218 138
219 138
220 138
221 138
222 138
223 138
224 138
225 138
226 138
227 138
228 138
229 138
230 138
231 138
232 138
233 138
234 138
235 138
236 138
237 138
238 138
239 138
240 138
241 138
242 138
243 138
244 138
245 138
246 138
247 138
248 138
249 138
250 138
251 138
252 138
253 138
254 138
255 138
256 138
257 138
258 138
259 138
260 138
261 138
262 138
263 138
264 138
265 138
266 138
267 138
268 138
269 138
270 138
271 138
272 138
273 138
274 138
275 138
276 138
277 138
278 138
279 138
280 138
281 138
282 138
283 138
284 138
285 138
286 138
287 138
288 138
289 138
290 138
291 138
292 138
293 138
294 138
295 138
296 138
297 138
298 138
299 138
300 138
301 138
194 139
195 139
196 139
197 139
198 139
199 139
200 139
201 139
202 139
203 139
204 139
205 139
206 139
207 139
208 139
209 139
210 139
211 139
212 139
213 139
214 139
215 139
216 139
217 139
218 139
219 139
220 139
221 139
222 139
223 139
224 139
225 139
226 139
227 139
228 139
229 139
230 139
231 139
232 139
233 139
234 139
235 139
236 139
237 139
238 139
239 139
240 139
241 139
242 139
243 139
244 139
245 139
246 139
247 139
248 139
249 139
250 139
251 139
252 139
253 139
254 139
255 139
256 139
257 139
258 139
259 139
260 139
261 139
262 139
263 139
264 139
265 139
266 139
267 139
268 139
269 139
270 139
271 139
272 139
273 139
274 139
275 139
276 139
277 139
278 139
279 139
280 139
281 139
282 139
283 139
284 139
285 139
286 139
287 139
288 139
289 139
290 139
291 139
292 139
293 139
294 139
295 139
296 139
297 139
298 139
299 139
300 139
301 139
194 140
195 140
196 140
197 140
198 140
199 140
200 140
201 140
202 140
203 140
204 140
205 140
206 140
207 140
208 140
209 140
210 140
211 140
212 140
213 140
214 140
215 140
216 140
217 140
218 140
219 140
220 140
221 140
222 140
223 140
224 140
225 140
226 140
227 140
228 140
229 140
230 140
231 140
232 140
233 140
234 140
235 140
236 140
237 140
238 140
239 140
240 140
241 140
242 140
243 140
244 140
245 140
246 140
247 140
248 140
249 140
250 140
251 140
252 140
253 140
254 140
255 140
256 140
257 140
258 140
259 140
260 140
261 140
262 140
263 140
264 140
265 140
266 140
267 140
268 140
269 140
270 140
271 140
272 140
273 140
274 140
275 140
276 140
277 140
278 140
279 140
280 140
281 140
282 140
283 140
284 140
285 140
286 140
287 140
288 140
289 140
290 140
291 140
292 140
293 140
294 140
295 140
296 140
297 140
298 140
299 140
300 140
301 140
194 141
195 141
196 141
197 141
198 141
199 141
200 141
201 141
202 141
203 141
204 141
205 141
206 141
207 141
208 141
209 141
210 141
211 141
212 141
213 141
214 141
215 141
216 141
217 141
218 141
219 141
220 141
221 141
222 141
223 141
224 141
225 141
226 141
227 141
228 141
229 141
230 141
231 141
232 141
233 141
234 141
235 141
236 141
237 141
238 141
239 141
240 141
241 141
242 141
243 141
244 141
245 141
246 141
247 141
248 141
249 141
250 141
251 141
252 141
253 141
254 141
255 141
256 141
257 141
258 141
259 141
260 141
261 141
262 141
263 141
264 141
265 141
266 141
267 141
268 141
269 141
270 141
271 141
272 141
273 141
274 141
275 141
276 141
277 141
278 141
279 141
280 141
281 141
282 141
283 141
284 141
285 141
286 141
287 141
288 141
289 141
290 141
291 141
292 141
293 141
294 141
295 141
296 141
297 141
298 141
299 141
300 141
301 141
346 195
347 195
348 195
349 195
350 195
351 195
352 195
353 195
354 195
355 195
356 195
357 195
358 195
359 195
360 195
361 195
362 195
363 195
364 195
365 195
366 195
367 195
368 195
369 195
370 195
371 195
372 195
373 195
374 195
375 195
376 195
377 195
378 195
379 195
380 195
381 195
382 195
383 195
384 195
385 195
386 195
387 195
388 195
389 195
390 195
391 195
392 195
393 195
394 195
395 195
396 195
397 195
398 195
399 195
400 195
401 195
402 195
403 195
404 195
405 195
406 195
407 195
408 195
409 195
410 195
411 195
412 195
413 195
414 195
415 195
416 195
417 195
418 195
419 195
420 195
421 195
422 195
423 195
424 195
425 195
426 195
427 195
428 195
429 195
430 195
431 195
432 195
433 195
434 195
435 195
436 195
437 195
438 195
439 195
440 195
441 195
442 195
443 195
444 195
445 195
446 195
447 195
448 195
449 195
450 195
451 195
452 195
453 195
346 196
347 196
348 196
349 196
350 196
351 196
352 196
353 196
354 196
355 196
356 196
357 196
358 196
359 196
360 196
361 196
362 196
363 196
364 196
365 196
366 196
367 196
368 196
369 196
370 196
371 196
372 196
373 196
374 196
375 196
376 196
377 196
378 196
379 196
380 196
381 196
382 196
383 196
384 196
385 196
386 196
387 196
388 196
389 196
390 196
391 196
392 196
393 196
394 196
395 196
396 196
397 196
398 196
399 196
400 196
401 196
402 196
403 196
404 196
405 196
406 196
407 196
408 196
409 196
410 196
411 196
412 196
413 196
414 196
415 196
416 196
417 196
418 196
419 196
420 196
421 196
422 196
423 196
424 196
425 196
426 196
427 196
428 196
429 196
430 196
431 196
432 196
433 196
434 196
435 196
436 196
437 196
438 196
439 196
440 196
441 196
442 196
443 196
444 196
445 196
446 196
447 196
448 196
449 196
450 196
451 196
452 196
453 196
346 197
347 197
348 197
349 197
350 197
351 197
352 197
353 197
354 197
355 197
356 197
357 197
358 197
359 197
360 197
361 197
362 197
363 197
364 197
365 197
366 197
367 197
368 197
369 197
370 197
371 197
372 197
373 197
374 197
375 197
376 197
377 197
378 197
379 197
380 197
381 197
382 197
383 197
384 197
385 197
386 197
387 197
388 197
389 197
390 197
391 197
392 197
393 197
394 197
395 197
396 197
397 197
398 197
399 197
400 197
401 197
402 197
403 197
404 197
405 197
406 197
407 197
408 197
409 197
410 197
411 197
412 197
413 197
414 197
415 197
416 197
417 197
418 197
419 197
420 197
421 197
422 197
423 197
424 197
425 197
426 197
427 197
428 197
429 197
430 197
431 197
432 197
433 197
434 197
435 197
436 197
437 197
438 197
439 197
440 197
441 197
442 197
443 197
444 197
445 197
446 197
447 197
448 197
449 197
450 197
451 197
452 197
453 197
346 198
347 198
348 198
349 198
350 198
351 198
352 198
353 198
354 198
355 198
356 198
357 198
358 198
359 198
360 198
361 198
362 198
363 198
364 198
365 198
366 198
367 198
368 198
369 198
370 198
371 198
372 198
373 198
374 198
375 198
376 198
377 198
378 198
379 198
380 198
381 198
382 198
383 198
384 198
385 198
386 198
387 198
388 198
389 198
390 198
391 198
392 198
393 198
394 198
395 198
396 198
397 198
398 198
399 198
400 198
401 198
402 198
403 198
404 198
405 198
406 198
407 198
408 198
409 198
410 198
411 198
412 198
413 198
414 198
415 198
416 198
417 198
418 198
419 198
420 198
421 198
422 198
423 198
424 198
425 198
426 198
427 198
428 198
429 198
430 198
431 198
432 198
433 198
434 198
435 198
436 198
437 198
438 198
439 198
440 198
441 198
442 198
443 198
444 198
445 198
446 198
447 198
448 198
449 198
450 198
451 198
452 198
453 198
346 199
347 199
348 199
349 199
350 199
351 199
352 199
353 199
354 199
355 199
356 199
357 199
358 199
359 199
360 199
361 199
362 199
363 199
364 199
365 199
366 199
367 199
368 199
369 199
370 199
371 199
372 199
373 199
374 199
375 199
376 199
377 199
378 199
379 199
380 199
381 199
382 199
383 199
384 199
385 199
386 199
387 199
388 199
389 199
390 199
391 199
392 199
393 199
394 199
395 199
396 199
397 199
398 199
399 199
400 199
401 199
402 199
403 199
404 199
405 199
406 199
407 199
408 199
409 199
410 199
411 199
412 199
413 199
414 199
415 199
416 199
417 199
418 199
419 199
420 199
421 199
422 199
423 199
424 199
425 199
426 199
427 199
428 199
429 199
430 199
431 199
432 199
433 199
434 199
435 199
436 199
437 199
438 199
439 199
440 199
441 199
442 199
443 199
444 199
445 199
446 199
447 199
448 199
449 199
450 199
451 199
452 199
453 199
346 200
347 200
348 200
349 200
350 200
351 200
352 200
353 200
354 200
355 200
356 200
357 200
358 200
359 200
360 200
361 200
362 200
363 200
364 200
365 200
366 200
367 200
368 200
369 200
370 200
371 200
372 200
373 200
374 200
375 200
376 200
377 200
378 200
379 200
380 200
381 200
382 200
383 200
384 200
385 200
386 200
387 200
388 200
389 200
390 200
391 200
392 200
393 200
394 200
395 200
396 200
397 200
398 200
399 200
400 200
401 200
402 200
403 200
404 200
405 200
406 200
407 200
408 200
409 200
410 200
411 200
412 200
413 200
414 200
415 200
416 200
417 200
418 200
419 200
420 200
421 200
422 200
423 200
424 200
425 200
426 200
427 200
428 200
429 200
430 200
431 200
432 200
433 200
434 200
435 200
436 200
437 200
438 200
439 200
440 200
441 200
442 200
443 200
444 200
445 200
446 200
447 200
448 200
449 200
450 200
451 200
452 200
453 200
346 201
347 201
348 201
349 201
350 201
351 201
352 201
353 201
354 201
355 201
356 201
357 201
358 201
359 201
360 201
361 201
362 201
363 201
364 201
365 201
366 201
367 201
368 201
369 201
370 201
371 201
372 201
373 201
374 201
375 201
376 201
377 201
378 201
379 201
380 201
381 201
382 201
383 201
384 201
385 201
386 201
387 201
388 201
389 201
390 201
391 201
392 201
393 201
394 201
395 201
396 201
397 201
398 201
399 201
400 201
401 201
402 201
403 201
404 201
405 201
406 201
407 201
408 201
409 201
410 201
411 201
412 201
413 201
414 201
415 201
416 201
417 201
418 201
419 201
420 201
421 201
422 201
423 201
424 201
425 201
426 201
427 201
428 201
429 201
430 201
431 201
432 201
433 201
434 201
435 201
436 201
437 201
438 201
439 201
440 201
441 201
442 201
443 201
444 201
445 201
446 201
447 201
448 201
449 201
450 201
451 201
452 201
453 201
346 202
347 202
348 202
349 202
350 202
351 202
352 202
353 202
354 202
355 202
356 202
357 202
358 202
359 202
360 202
361 202
362 202
363 202
364 202
365 202
366 202
367 202
368 202
369 202
370 202
371 202
372 202
373 202
374 202
375 202
376 202
377 202
378 202
379 202
380 202
381 202
382 202
383 202
384 202
385 202
386 202
387 202
388 202
389 202
390 202
391 202
392 202
393 202
394 202
395 202
396 202
397 202
398 202
399 202
400 202
401 202
402 202
403 202
404 202
405 202
406 202
407 202
408 202
409 202
410 202
411 202
412 202
413 202
414 202
415 202
416 202
417 202
418 202
419 202
420 202
421 202
422 202
423 202
424 202
425 202
426 202
427 202
428 202
429 202
430 202
431 202
432 202
433 202
434 202
435 202
436 202
437 202
438 202
439 202
440 202
441 202
442 202
443 202
444 202
445 202
446 202
447 202
448 202
449 202
450 202
451 202
452 202
453 202
346 203
347 203
348 203
349 203
350 203
351 203
352 203
353 203
354 203
355 203
356 203
357 203
358 203
359 203
360 203
361 203
362 203
363 203
364 203
365 203
366 203
367 203
368 203
369 203
370 203
371 203
372 203
373 203
374 203
375 203
376 203
377 203
378 203
379 203
380 203
381 203
382 203
383 203
384 203
385 203
386 203
387 203
388 203
389 203
390 203
391 203
392 203
393 203
394 203
395 203
396 203
397 203
398 203
399 203
400 203
401 203
402 203
403 203
404 203
405 203
406 203
407 203
408 203
409 203
410 203
411 203
412 203
413 203
414 203
415 203
416 203
417 203
418 203
419 203
420 203
421 203
422 203
423 203
424 203
425 203
426 203
427 203
428 203
429 203
430 203
431 203
432 203
433 203
434 203
435 203
436 203
437 203
438 203
439 203
440 203
441 203
442 203
443 203
444 203
445 203
446 203
447 203
448 203
449 203
450 203
451 203
452 203
453 203
346 204
347 204
348 204
349 204
350 204
351 204
352 204
353 204
354 204
355 204
356 204
357 204
358 204
359 204
360 204
361 204
362 204
363 204
364 204
365 204
366 204
367 204
368 204
369 204
370 204
371 204
372 204
373 204
374 204
375 204
376 204
377 204
378 204
379 204
380 204
381 204
382 204
383 204
384 204
385 204
386 204
387 204
388 204
389 204
390 204
391 204
392 204
393 204
394 204
395 204
396 204
397 204
398 204
399 204
400 204
401 204
402 204
403 204
404 204
405 204
406 204
407 204
408 204
409 204
410 204
411 204
412 204
413 204
414 204
415 204
416 204
417 204
418 204
419 204
420 204
421 204
422 204
423 204
424 204
425 204
426 204
427 204
428 204
429 204
430 204
431 204
432 204
433 204
434 204
435 204
436 204
437 204
438 204
439 204
440 204
441 204
442 204
443 204
444 204
445 204
446 204
447 204
448 204
449 204
450 204
451 204
452 204
453 204
346 205
347 205
348 205
349 205
350 205
351 205
352 205
353 205
354 205
355 205
356 205
357 205
358 205
359 205
360 205
361 205
362 205
363 205
364 205
365 205
366 205
367 205
368 205
369 205
370 205
371 205
372 205
373 205
374 205
375 205
376 205
377 205
378 205
379 205
380 205
381 205
382 205
383 205
384 205
385 205
386 205
387 205
388 205
389 205
390 205
391 205
392 205
393 205
394 205
395 205
396 205
397 205
398 205
399 205
400 205
401 205
402 205
403 205
404 205
405 205
406 205
407 205
408 205
409 205
410 205
411 205
412 205
413 205
414 205
415 205
416 205
417 205
418 205
419 205
420 205
421 205
422 205
423 205
424 205
425 205
426 205
427 205
428 205
429 205
430 205
431 205
432 205
433 205
434 205
435 205
436 205
437 205
438 205
439 205
440 205
441 205
442 205
443 205
444 205
445 205
446 205
447 205
448 205
449 205
450 205
451 205
452 205
453 205
346 206
347 206
348 206
349 206
350 206
351 206
352 206
353 206
354 206
355 206
356 206
357 206
358 206
359 206
360 206
361 206
362 206
363 206
364 206
365 206
366 206
367 206
368 206
369 206
370 206
371 206
372 206
373 206
374 206
375 206
376 206
377 206
378 206
379 206
380 206
381 206
382 206
383 206
384 206
385 206
386 206
387 206
388 206
389 206
390 206
391 206
392 206
393 206
394 206
395 206
396 206
397 206
398 206
399 206
400 206
401 206
402 206
403 206
404 206
405 206
406 206
407 206
408 206
409 206
410 206
411 206
412 206
413 206
414 206
415 206
416 206
417 206
418 206
419 206
420 206
421 206
422 206
423 206
424 206
425 206
426 206
427 206
428 206
429 206
430 206
431 206
432 206
433 206
434 206
435 206
436 206
437 206
438 206
439 206
440 206
441 206
442 206
443 206
444 206
445 206
446 206
447 206
448 206
449 206
450 206
451 206
452 206
453 206
346 207
347 207
348 207
349 207
350 207
351 207
352 207
353 207
354 207
355 207
356 207
357 207
358 207
359 207
360 207
361 207
362 207
363 207
364 207
365 207
366 207
367 207
368 207
369 207
370 207
371 207
372 207
373 207
374 207
375 207
376 207
377 207
378 207
379 207
380 207
381 207
382 207
383 207
384 207
385 207
386 207
387 207
388 207
389 207
390 207
391 207
392 207
393 207
394 207
395 207
396 207
397 207
398 207
399 207
400 207
401 207
402 207
403 207
404 207
405 207
406 207
407 207
408 207
409 207
410 207
411 207
412 207
413 207
414 207
415 207
416 207
417 207
418 207
419 207
420 207
421 207
422 207
423 207
424 207
425 207
426 207
427 207
428 207
429 207
430 207
431 207
432 207
433 207
434 207
435 207
436 207
437 207
438 207
439 207
440 207
441 207
442 207
443 207
444 207
445 207
446 207
447 207
448 207
449 207
450 207
451 207
452 207
453 207
346 208
347 208
348 208
349 208
350 208
351 208
352 208
353 208
354 208
355 208
356 208
357 208
358 208
359 208
360 208
361 208
362 208
363 208
364 208
365 208
366 208
367 208
368 208
369 208
370 208
371 208
372 208
373 208
374 208
375 208
376 208
377 208
378 208
379 208
380 208
381 208
382 208
383 208
384 208
385 208
386 208
387 208
388 208
389 208
390 208
391 208
392 208
393 208
394 208
395 208
396 208
397 208
398 208
399 208
400 208
401 208
402 208
403 208
404 208
405 208
406 208
407 208
408 208
409 208
410 208
411 208
412 208
413 208
414 208
415 208
416 208
417 208
418 208
419 208
420 208
421 208
422 208
423 208
424 208
425 208
426 208
427 208
428 208
429 208
430 208
431 208
432 208
433 208
434 208
435 208
436 208
437 208
438 208
439 208
440 208
441 208
442 208
443 208
444 208
445 208
446 208
447 208
448 208
449 208
450 208
451 208
452 208
453 208
346 209
347 209
348 209
349 209
350 209
351 209
352 209
353 209
354 209
355 209
356 209
357 209
358 209
359 209
360 209
361 209
362 209
363 209
364 209
365 209
366 209
367 209
368 209
369 209
370 209
371 209
372 209
373 209
374 209
375 209
376 209
377 209
378 209
379 209
380 209
381 209
382 209
383 209
384 209
385 209
386 209
387 209
388 209
389 209
390 209
391 209
392 209
393 209
394 209
395 209
396 209
397 209
398 209
399 209
400 209
401 209
402 209
403 209
404 209
405 209
406 209
407 209
408 209
409 209
410 209
411 209
412 209
413 209
414 209
415 209
416 209
417 209
418 209
419 209
420 209
421 209
422 209
423 209
424 209
425 209
426 209
427 209
428 209
429 209
430 209
431 209
432 209
433 209
434 209
435 209
436 209
437 209
438 209
439 209
440 209
441 209
442 209
443 209
444 209
445 209
446 209
447 209
448 209
449 209
450 209
451 209
452 209
453 209
346 210
347 210
348 210
349 210
350 210
351 210
352 210
353 210
354 210
355 210
356 210
357 210
358 210
359 210
360 210
361 210
362 210
363 210
364 210
365 210
366 210
367 210
368 210
369 210
370 210
371 210
372 210
373 210
374 210
375 210
376 210
377 210
378 210
379 210
380 210
381 210
382 210
383 210
384 210
385 210
386 210
387 210
388 210
389 210
390 210
391 210
392 210
393 210
394 210
395 210
396 210
397 210
398 210
399 210
400 210
401 210
402 210
403 210
404 210
405 210
406 210
407 210
408 210
409 210
410 210
411 210
412 210
413 210
414 210
415 210
416 210
417 210
418 210
419 210
420 210
421 210
422 210
423 210
424 210
425 210
426 210
427 210
428 210
429 210
430 210
431 210
432 210
433 210
434 210
435 210
436 210
437 210
438 210
439 210
440 210
441 210
442 210
443 210
444 210
445 210
446 210
447 210
448 210
449 210
450 210
451 210
452 210
453 210
346 211
347 211
348 211
349 211
350 211
351 211
352 211
353 211
354 211
355 211
356 211
357 211
358 211
359 211
360 211
361 211
362 211
363 211
364 211
365 211
366 211
367 211
368 211
369 211
370 211
371 211
372 211
373 211
374 211
375 211
376 211
377 211
378 211
379 211
380 211
381 211
382 211
383 211
384 211
385 211
386 211
387 211
388 211
389 211
390 211
391 211
392 211
393 211
394 211
395 211
396 211
397 211
398 211
399 211
400 211
401 211
402 211
403 211
404 211
405 211
406 211
407 211
408 211
409 211
410 211
411 211
412 211
413 211
414 211
415 211
416 211
417 211
418 211
419 211
420 211
421 211
422 211
423 211
424 211
425 211
426 211
427 211
428 211
429 211
430 211
431 211
432 211
433 211
434 211
435 211
436 211
437 211
438 211
439 211
440 211
441 211
442 211
443 211
444 211
445 211
446 211
447 211
448 211
449 211
450 211
451 211
452 211
453 211
346 212
347 212
348 212
349 212
350 212
351 212
352 212
353 212
354 212
355 212
356 212
357 212
358 212
359 212
360 212
361 212
362 212
363 212
364 212
365 212
366 212
367 212
368 212
369 212
370 212
371 212
372 212
373 212
374 212
375 212
376 212
377 212
378 212
379 212
380 212
381 212
382 212
383 212
384 212
385 212
386 212
387 212
388 212
389 212
390 212
391 212
392 212
393 212
394 212
395 212
396 212
397 212
398 212
399 212
400 212
401 212
402 212
403 212
404 212
405 212
406 212
407 212
408 212
409 212
410 212
411 212
412 212
413 212
414 212
415 212
416 212
417 212
418 212
419 212
420 212
421 212
422 212
423 212
424 212
425 212
426 212
427 212
428 212
429 212
430 212
431 212
432 212
433 212
434 212
435 212
436 212
437 212
438 212
439 212
440 212
441 212
442 212
443 212
444 212
445 212
446 212
447 212
448 212
449 212
450 212
451 212
452 212
453 212
346 213
347 213
348 213
349 213
350 213
351 213
352 213
353 213
354 213
355 213
356 213
357 213
358 213
359 213
360 213
361 213
362 213
363 213
364 213
365 213
366 213
367 213
368 213
369 213
370 213
371 213
372 213
373 213
374 213
375 213
376 213
377 213
378 213
379 213
380 213
381 213
382 213
383 213
384 213
385 213
386 213
387 213
388 213
389 213
390 213
391 213
392 213
393 213
394 213
395 213
396 213
397 213
398 213
399 213
400 213
401 213
402 213
403 213
404 213
405 213
406 213
407 213
408 213
409 213
410 213
411 213
412 213
413 213
414 213
415 213
416 213
417 213
418 213
419 213
420 213
421 213
422 213
423 213
424 213
425 213
426 213
427 213
428 213
429 213
430 213
431 213
432 213
433 213
434 213
435 213
436 213
437 213
438 213
439 213
440 213
441 213
442 213
443 213
444 213
445 213
446 213
447 213
448 213
449 213
450 213
451 213
452 213
453 213
346 214
347 214
348 214
349 214
350 214
351 214
352 214
353 214
354 214
355 214
356 214
357 214
358 214
359 214
360 214
361 214
362 214
363 214
364 214
365 214
366 214
367 214
368 214
369 214
370 214
371 214
372 214
373 214
374 214
375 214
376 214
377 214
378 214
379 214
380 214
381 214
382 214
383 214
384 214
385 214
386 214
387 214
388 214
389 214
390 214
391 214
392 214
393 214
394 214
395 214
396 214
397 214
398 214
399 214
400 214
401 214
402 214
403 214
404 214
405 214
406 214
407 214
408 214
409 214
410 214
411 214
412 214
413 214
414 214
415 214
416 214
417 214
418 214
419 214
420 214
421 214
422 214
423 214
424 214
425 214
426 214
427 214
428 214
429 214
430 214
431 214
432 214
433 214
434 214
435 214
436 214
437 214
438 214
439 214
440 214
441 214
442 214
443 214
444 214
445 214
446 214
447 214
448 214
449 214
450 214
451 214
452 214
453 214
346 215
347 215
348 215
349 215
350 215
351 215
352 215
353 215
354 215
355 215
356 215
357 215
358 215
359 215
360 215
361 215
362 215
363 215
364 215
365 215
366 215
367 215
368 215
369 215
370 215
371 215
372 215
373 215
374 215
375 215
376 215
377 215
378 215
379 215
380 215
381 215
382 215
383 215
384 215
385 215
386 215
387 215
388 215
389 215
390 215
391 215
392 215
393 215
394 215
395 215
396 215
397 215
398 215
399 215
400 215
401 215
402 215
403 215
404 215
405 215
406 215
407 215
408 215
409 215
410 215
411 215
412 215
413 215
414 215
415 215
416 215
417 215
418 215
419 215
420 215
421 215
422 215
423 215
424 215
425 215
426 215
427 215
428 215
429 215
430 215
431 215
432 215
433 215
434 215
435 215
436 215
437 215
438 215
439 215
440 215
441 215
442 215
443 215
444 215
445 215
446 215
447 215
448 215
449 215
450 215
451 215
452 215
453 215
346 216
347 216
348 216
349 216
350 216
351 216
352 216
353 216
354 216
355 216
356 216
357 216
358 216
359 216
360 216
361 216
362 216
363 216
364 216
365 216
366 216
367 216
368 216
369 216
370 216
371 216
372 216
373 216
374 216
375 216
376 216
377 216
378 216
379 216
380 216
381 216
382 216
383 216
384 216
385 216
386 216
387 216
388 216
389 216
390 216
391 216
392 216
393 216
394 216
395 216
396 216
397 216
398 216
399 216
400 216
401 216
402 216
403 216
404 216
405 216
406 216
407 216
408 216
409 216
410 216
411 216
412 216
413 216
414 216
415 216
416 216
417 216
418 216
419 216
420 216
421 216
422 216
423 216
424 216
425 216
426 216
427 216
428 216
429 216
430 216
431 216
432 216
433 216
434 216
435 216
436 216
437 216
438 216
439 216
440 216
441 216
442 216
443 216
444 216
445 216
446 216
447 216
448 216
449 216
450 216
451 216
452 216
453 216
346 217
347 217
348 217
349 217
350 217
351 217
352 217
353 217
354 217
355 217
356 217
357 217
358 217
359 217
360 217
361 217
362 217
363 217
364 217
365 217
366 217
367 217
368 217
369 217
370 217
371 217
372 217
373 217
374 217
375 217
376 217
377 217
378 217
379 217
380 217
381 217
382 217
383 217
384 217
385 217
386 217
387 217
388 217
389 217
390 217
391 217
392 217
393 217
394 217
395 217
396 217
397 217
398 217
399 217
400 217
401 217
402 217
403 217
404 217
405 217
406 217
407 217
408 217
409 217
410 217
411 217
412 217
413 217
414 217
415 217
416 217
417 217
418 217
419 217
420 217
421 217
422 217
423 217
424 217
425 217
426 217
427 217
428 217
429 217
430 217
431 217
432 217
433 217
434 217
435 217
436 217
437 217
438 217
439 217
440 217
441 217
442 217
443 217
444 217
445 217
446 217
447 217
448 217
449 217
450 217
451 217
452 217
453 217
346 218
347 218
348 218
349 218
350 218
351 218
352 218
353 218
354 218
355 218
356 218
357 218
358 218
359 218
360 218
361 218
362 218
363 218
364 218
365 218
366 218
367 218
368 218
369 218
370 218
371 218
372 218
373 218
374 218
375 218
376 218
377 218
378 218
379 218
380 218
381 218
382 218
383 218
384 218
385 218
386 218
387 218
388 218
389 218
390 218
391 218
392 218
393 218
394 218
395 218
396 218
397 218
398 218
399 218
400 218
401 218
402 218
403 218
404 218
405 218
406 218
407 218
408 218
409 218
410 218
411 218
412 218
413 218
414 218
415 218
416 218
417 218
418 218
419 218
420 218
421 218
422 218
423 218
424 218
425 218
426 218
427 218
428 218
429 218
430 218
431 218
432 218
433 218
434 218
435 218
436 218
437 218
438 218
439 218
440 218
441 218
442 218
443 218
444 218
445 218
446 218
447 218
448 218
449 218
450 218
451 218
452 218
453 218
346 219
347 219
348 219
349 219
350 219
351 219
352 219
353 219
354 219
355 219
356 219
357 219
358 219
359 219
360 219
361 219
362 219
363 219
364 219
365 219
366 219
367 219
368 219
369 219
370 219
371 219
372 219
373 219
374 219
375 219
376 219
377 219
378 219
379 219
380 219
381 219
382 219
383 219
384 219
385 219
386 219
387 219
388 219
389 219
390 219
391 219
392 219
393 219
394 219
395 219
396 219
397 219
398 219
399 219
400 219
401 219
402 219
403 219
404 219
405 219
406 219
407 219
408 219
409 219
410 219
411 219
412 219
413 219
414 219
415 219
416 219
417 219
418 219
419 219
420 219
421 219
422 219
423 219
424 219
425 219
426 219
427 219
428 219
429 219
430 219
431 219
432 219
433 219
434 219
435 219
436 219
437 219
438 219
439 219
440 219
441 219
442 219
443 219
444 219
445 219
446 219
447 219
448 219
449 219
450 219
451 219
452 219
453 219
346 220
347 220
348 220
349 220
350 220
351 220
352 220
353 220
354 220
355 220
356 220
357 220
358 220
359 220
360 220
361 220
362 220
363 220
364 220
365 220
366 220
367 220
368 220
369 220
370 220
371 220
372 220
373 220
374 220
375 220
376 220
377 220
378 220
379 220
380 220
381 220
382 220
383 220
384 220
385 220
386 220
387 220
388 220
389 220
390 220
391 220
392 220
393 220
394 220
395 220
396 220
397 220
398 220
399 220
400 220
401 220
402 220
403 220
404 220
405 220
406 220
407 220
408 220
409 220
410 220
411 220
412 220
413 220
414 220
415 220
416 220
417 220
418 220
419 220
420 220
421 220
422 220
423 220
424 220
425 220
426 220
427 220
428 220
429 220
430 220
431 220
432 220
433 220
434 220
435 220
436 220
437 220
438 220
439 220
440 220
441 220
442 220
443 220
444 220
445 220
446 220
447 220
448 220
449 220
450 220
451 220
452 220
453 220
346 221
347 221
348 221
349 221
350 221
351 221
352 221
353 221
354 221
355 221
356 221
357 221
358 221
359 221
360 221
361 221
362 221
363 221
364 221
365 221
366 221
367 221
368 221
369 221
370 221
371 221
372 221
373 221
374 221
375 221
376 221
377 221
378 221
379 221
380 221
381 221
382 221
383 221
384 221
385 221
386 221
387 221
388 221
389 221
390 221
391 221
392 221
393 221
394 221
395 221
396 221
397 221
398 221
399 221
400 221
401 221
402 221
403 221
404 221
405 221
406 221
407 221
408 221
409 221
410 221
411 221
412 221
413 221
414 221
415 221
416 221
417 221
418 221
419 221
420 221
421 221
422 221
423 221
424 221
425 221
426 221
427 221
428 221
429 221
430 221
431 221
432 221
433 221
434 221
435 221
436 221
437 221
438 221
439 221
440 221
441 221
442 221
443 221
444 221
445 221
446 221
447 221
448 221
449 221
450 221
451 221
452 221
453 221
346 222
347 222
348 222
349 222
350 222
351 222
352 222
353 222
354 222
355 222
356 222
357 222
358 222
359 222
360 222
361 222
362 222
363 222
364 222
365 222
366 222
367 222
368 222
369 222
370 222
371 222
372 222
373 222
374 222
375 222
376 222
377 222
378 222
379 222
380 222
381 222
382 222
383 222
384 222
385 222
386 222
387 222
388 222
389 222
390 222
391 222
392 222
393 222
394 222
395 222
396 222
397 222
398 222
399 222
400 222
401 222
402 222
403 222
404 222
405 222
406 222
407 222
408 222
409 222
410 222
411 222
412 222
413 222
414 222
415 222
416 222
417 222
418 222
419 222
420 222
421 222
422 222
423 222
424 222
425 222
426 222
427 222
428 222
429 222
430 222
431 222
432 222
433 222
434 222
435 222
436 222
437 222
438 222
439 222
440 222
441 222
442 222
443 222
444 222
445 222
446 222
447 222
448 222
449 222
450 222
451 222
452 222
453 222
346 223
347 223
348 223
349 223
350 223
351 223
352 223
353 223
354 223
355 223
356 223
357 223
358 223
359 223
360 223
361 223
362 223
363 223
364 223
365 223
366 223
367 223
368 223
369 223
370 223
371 223
372 223
373 223
374 223
375 223
376 223
377 223
378 223
379 223
380 223
381 223
382 223
383 223
384 223
385 223
386 223
387 223
388 223
389 223
390 223
391 223
392 223
393 223
394 223
395 223
396 223
397 223
398 223
399 223
400 223
401 223
402 223
403 223
404 223
405 223
406 223
407 223
408 223
409 223
410 223
411 223
412 223
413 223
414 223
415 223
416 223
417 223
418 223
419 223
420 223
421 223
422 223
423 223
424 223
425 223
426 223
427 223
428 223
429 223
430 223
431 223
432 223
433 223
434 223
435 223
436 223
437 223
438 223
439 223
440 223
441 223
442 223
443 223
444 223
445 223
446 223
447 223
448 223
449 223
450 223
451 223
452 223
453 223
346 224
347 224
348 224
349 224
350 224
351 224
352 224
353 224
354 224
355 224
356 224
357 224
358 224
359 224
360 224
361 224
362 224
363 224
364 224
365 224
366 224
367 224
368 224
369 224
370 224
371 224
372 224
373 224
374 224
375 224
376 224
377 224
378 224
379 224
380 224
381 224
382 224
383 224
384 224
385 224
386 224
387 224
388 224
389 224
390 224
391 224
392 224
393 224
394 224
395 224
396 224
397 224
398 224
399 224
400 224
401 224
402 224
403 224
404 224
405 224
406 224
407 224
408 224
409 224
410 224
411 224
412 224
413 224
414 224
415 224
416 224
417 224
418 224
419 224
420 224
421 224
422 224
423 224
424 224
425 224
426 224
427 224
428 224
429 224
430 224
431 224
432 224
433 224
434 224
435 224
436 224
437 224
438 224
439 224
440 224
441 224
442 224
443 224
444 224
445 224
446 224
447 224
448 224
449 224
450 224
451 224
452 224
453 224
346 225
347 225
348 225
349 225
350 225
351 225
352 225
353 225
354 225
355 225
356 225
357 225
358 225
359 225
360 225
361 225
362 225
363 225
364 225
365 225
366 225
367 225
368 225
369 225
370 225
371 225
372 225
373 225
374 225
375 225
376 225
377 225
378 225
379 225
380 225
381 225
382 225
383 225
384 225
385 225
386 225
387 225
388 225
389 225
390 225
391 225
392 225
393 225
394 225
395 225
396 225
397 225
398 225
399 225
400 225
401 225
402 225
403 225
404 225
405 225
406 225
407 225
408 225
409 225
410 225
411 225
412 225
413 225
414 225
415 225
416 225
417 225
418 225
419 225
420 225
421 225
422 225
423 225
424 225
425 225
426 225
427 225
428 225
429 225
430 225
431 225
432 225
433 225
434 225
435 225
436 225
437 225
438 225
439 225
440 225
441 225
442 225
443 225
444 225
445 225
446 225
447 225
448 225
449 225
450 225
451 225
452 225
453 225
346 226
347 226
348 226
349 226
350 226
351 226
352 226
353 226
354 226
355 226
356 226
357 226
358 226
359 226
360 226
361 226
362 226
363 226
364 226
365 226
366 226
367 226
368 226
369 226
370 226
371 226
372 226
373 226
374 226
375 226
376 226
377 226
378 226
379 226
380 226
381 226
382 226
383 226
384 226
385 226
386 226
387 226
388 226
389 226
390 226
391 226
392 226
393 226
394 226
395 226
396 226
397 226
398 226
399 226
400 226
401 226
402 226
403 226
404 226
405 226
406 226
407 226
408 226
409 226
410 226
411 226
412 226
413 226
414 226
415 226
416 226
417 226
418 226
419 226
420 226
421 226
422 226
423 226
424 226
425 226
426 226
427 226
428 226
429 226
430 226
431 226
432 226
433 226
434 226
435 226
436 226
437 226
438 226
439 226
440 226
441 226
442 226
443 226
444 226
445 226
446 226
447 226
448 226
449 226
450 226
451 226
452 226
453 226
346 227
347 227
348 227
349 227
350 227
351 227
352 227
353 227
354 227
355 227
356 227
357 227
358 227
359 227
360 227
361 227
362 227
363 227
364 227
365 227
366 227
367 227
368 227
369 227
370 227
371 227
372 227
373 227
374 227
375 227
376 227
377 227
378 227
379 227
380 227
381 227
382 227
383 227
384 227
385 227
386 227
387 227
388 227
389 227
390 227
391 227
392 227
393 227
394 227
395 227
396 227
397 227
398 227
399 227
400 227
401 227
402 227
403 227
404 227
405 227
406 227
407 227
408 227
409 227
410 227
411 227
412 227
413 227
414 227
415 227
416 227
417 227
418 227
419 227
420 227
421 227
422 227
423 227
424 227
425 227
426 227
427 227
428 227
429 227
430 227
431 227
432 227
433 227
434 227
435 227
436 227
437 227
438 227
439 227
440 227
441 227
442 227
443 227
444 227
445 227
446 227
447 227
448 227
449 227
450 227
451 227
452 227
453 227
346 228
347 228
348 228
349 228
350 228
351 228
352 228
353 228
354 228
355 228
356 228
357 228
358 228
359 228
360 228
361 228
362 228
363 228
364 228
365 228
366 228
367 228
368 228
369 228
370 228
371 228
372 228
373 228
374 228
375 228
376 228
377 228
378 228
379 228
380 228
381 228
382 228
383 228
384 228
385 228
386 228
387 228
388 228
389 228
390 228
391 228
392 228
393 228
394 228
395 228
396 228
397 228
398 228
399 228
400 228
401 228
402 228
403 228
404 228
405 228
406 228
407 228
408 228
409 228
410 228
411 228
412 228
413 228
414 228
415 228
416 228
417 228
418 228
419 228
420 228
421 228
422 228
423 228
424 228
425 228
426 228
427 228
428 228
429 228
430 228
431 228
432 228
433 228
434 228
435 228
436 228
437 228
438 228
439 228
440 228
441 228
442 228
443 228
444 228
445 228
446 228
447 228
448 228
449 228
450 228
451 228
452 228
453 228
346 229
347 229
348 229
349 229
350 229
351 229
352 229
353 229
354 229
355 229
356 229
357 229
358 229
359 229
360 229
361 229
362 229
363 229
364 229
365 229
366 229
367 229
368 229
369 229
370 229
371 229
372 229
373 229
374 229
375 229
376 229
377 229
378 229
379 229
380 229
381 229
382 229
383 229
384 229
385 229
386 229
387 229
388 229
389 229
390 229
391 229
392 229
393 229
394 229
395 229
396 229
397 229
398 229
399 229
400 229
401 229
402 229
403 229
404 229
405 229
406 229
407 229
408 229
409 229
410 229
411 229
412 229
413 229
414 229
415 229
416 229
417 229
418 229
419 229
420 229
421 229
422 229
423 229
424 229
425 229
426 229
427 229
428 229
429 229
430 229
431 229
432 229
433 229
434 229
435 229
436 229
437 229
438 229
439 229
440 229
441 229
442 229
443 229
444 229
445 229
446 229
447 229
448 229
449 229
450 229
451 229
452 229
453 229
346 230
347 230
348 230
349 230
350 230
351 230
352 230
353 230
354 230
355 230
356 230
357 230
358 230
359 230
360 230
361 230
362 230
363 230
364 230
365 230
366 230
367 230
368 230
369 230
370 230
371 230
372 230
373 230
374 230
375 230
376 230
377 230
378 230
379 230
380 230
381 230
382 230
383 230
384 230
385 230
386 230
387 230
388 230
389 230
390 230
391 230
392 230
393 230
394 230
395 230
396 230
397 230
398 230
399 230
400 230
401 230
402 230
403 230
404 230
405 230
406 230
407 230
408 230
409 230
410 230
411 230
412 230
413 230
414 230
415 230
416 230
417 230
418 230
419 230
420 230
421 230
422 230
423 230
424 230
425 230
426 230
427 230
428 230
429 230
430 230
431 230
432 230
433 230
434 230
435 230
436 230
437 230
438 230
439 230
440 230
441 230
442 230
443 230
444 230
445 230
446 230
447 230
448 230
449 230
450 230
451 230
452 230
453 230
346 231
347 231
348 231
349 231
350 231
351 231
352 231
353 231
354 231
355 231
356 231
357 231
358 231
359 231
360 231
361 231
362 231
363 231
364 231
365 231
366 231
367 231
368 231
369 231
370 231
371 231
372 231
373 231
374 231
375 231
376 231
377 231
378 231
379 231
380 231
381 231
382 231
383 231
384 231
385 231
386 231
387 231
388 231
389 231
390 231
391 231
392 231
393 231
394 231
395 231
396 231
397 231
398 231
399 231
400 231
401 231
402 231
403 231
404 231
405 231
406 231
407 231
408 231
409 231
410 231
411 231
412 231
413 231
414 231
415 231
416 231
417 231
418 231
419 231
420 231
421 231
422 231
423 231
424 231
425 231
426 231
427 231
428 231
429 231
430 231
431 231
432 231
433 231
434 231
435 231
436 231
437 231
438 231
439 231
440 231
441 231
442 231
443 231
444 231
445 231
446 231
447 231
448 231
449 231
450 231
451 231
452 231
453 231
346 232
347 232
348 232
349 232
350 232
351 232
352 232
353 232
354 232
355 232
356 232
357 232
358 232
359 232
360 232
361 232
362 232
363 232
364 232
365 232
366 232
367 232
368 232
369 232
370 232
371 232
372 232
373 232
374 232
375 232
376 232
377 232
378 232
379 232
380 232
381 232
382 232
383 232
384 232
385 232
386 232
387 232
388 232
389 232
390 232
391 232
392 232
393 232
394 232
395 232
396 232
397 232
398 232
399 232
400 232
401 232
402 232
403 232
404 232
405 232
406 232
407 232
408 232
409 232
410 232
411 232
412 232
413 232
414 232
415 232
416 232
417 232
418 232
419 232
420 232
421 232
422 232
423 232
424 232
425 232
426 232
427 232
428 232
429 232
430 232
431 232
432 232
433 232
434 232
435 232
436 232
437 232
438 232
439 232
440 232
441 232
442 232
443 232
444 232
445 232
446 232
447 232
448 232
449 232
450 232
451 232
452 232
453 232
346 233
347 233
348 233
349 233
350 233
351 233
352 233
353 233
354 233
355 233
356 233
357 233
358 233
359 233
360 233
361 233
362 233
363 233
364 233
365 233
366 233
367 233
368 233
369 233
370 233
371 233
372 233
373 233
374 233
375 233
376 233
377 233
378 233
379 233
380 233
381 233
382 233
383 233
384 233
385 233
386 233
387 233
388 233
389 233
390 233
391 233
392 233
393 233
394 233
395 233
396 233
397 233
398 233
399 233
400 233
401 233
402 233
403 233
404 233
405 233
406 233
407 233
408 233
409 233
410 233
411 233
412 233
413 233
414 233
415 233
416 233
417 233
418 233
419 233
420 233
421 233
422 233
423 233
424 233
425 233
426 233
427 233
428 233
429 233
430 233
431 233
432 233
433 233
434 233
435 233
436 233
437 233
438 233
439 233
440 233
441 233
442 233
443 233
444 233
445 233
446 233
447 233
448 233
449 233
450 233
451 233
452 233
453 233
346 234
347 234
348 234
349 234
350 234
351 234
352 234
353 234
354 234
355 234
356 234
357 234
358 234
359 234
360 234
361 234
362 234
363 234
364 234
365 234
366 234
367 234
368 234
369 234
370 234
371 234
372 234
373 234
374 234
375 234
376 234
377 234
378 234
379 234
380 234
381 234
382 234
383 234
384 234
385 234
386 234
387 234
388 234
389 234
390 234
391 234
392 234
393 234
394 234
395 234
396 234
397 234
398 234
399 234
400 234
401 234
402 234
403 234
404 234
405 234
406 234
407 234
408 234
409 234
410 234
411 234
412 234
413 234
414 234
415 234
416 234
417 234
418 234
419 234
420 234
421 234
422 234
423 234
424 234
425 234
426 234
427 234
428 234
429 234
430 234
431 234
432 234
433 234
434 234
435 234
436 234
437 234
438 234
439 234
440 234
441 234
442 234
443 234
444 234
445 234
446 234
447 234
448 234
449 234
450 234
451 234
452 234
453 234
346 235
347 235
348 235
349 235
350 235
351 235
352 235
353 235
354 235
355 235
356 235
357 235
358 235
359 235
360 235
361 235
362 235
363 235
364 235
365 235
366 235
367 235
368 235
369 235
370 235
371 235
372 235
373 235
374 235
375 235
376 235
377 235
378 235
379 235
380 235
381 235
382 235
383 235
384 235
385 235
386 235
387 235
388 235
389 235
390 235
391 235
392 235
393 235
394 235
395 235
396 235
397 235
398 235
399 235
400 235
401 235
402 235
403 235
404 235
405 235
406 235
407 235
408 235
409 235
410 235
411 235
412 235
413 235
414 235
415 235
416 235
417 235
418 235
419 235
420 235
421 235
422 235
423 235
424 235
425 235
426 235
427 235
428 235
429 235
430 235
431 235
432 235
433 235
434 235
435 235
436 235
437 235
438 235
439 235
440 235
441 235
442 235
443 235
444 235
445 235
446 235
447 235
448 235
449 235
450 235
451 235
452 235
453 235
346 236
347 236
348 236
349 236
350 236
351 236
352 236
353 236
354 236
355 236
356 236
357 236
358 236
359 236
360 236
361 236
362 236
363 236
364 236
365 236
366 236
367 236
368 236
369 236
370 236
371 236
372 236
373 236
374 236
375 236
376 236
377 236
378 236
379 236
380 236
381 236
382 236
383 236
384 236
385 236
386 236
387 236
388 236
389 236
390 236
391 236
392 236
393 236
394 236
395 236
396 236
397 236
398 236
399 236
400 236
401 236
402 236
403 236
404 236
405 236
406 236
407 236
408 236
409 236
410 236
411 236
412 236
413 236
414 236
415 236
416 236
417 236
418 236
419 236
420 236
421 236
422 236
423 236
424 236
425 236
426 236
427 236
428 236
429 236
430 236
431 236
432 236
433 236
434 236
435 236
436 236
437 236
438 236
439 236
440 236
441 236
442 236
443 236
444 236
445 236
446 236
447 236
448 236
449 236
450 236
451 236
452 236
453 236
346 237
347 237
348 237
349 237
350 237
351 237
352 237
353 237
354 237
355 237
356 237
357 237
358 237
359 237
360 237
361 237
362 237
363 237
364 237
365 237
366 237
367 237
368 237
369 237
370 237
371 237
372 237
373 237
374 237
375 237
376 237
377 237
378 237
379 237
380 237
381 237
382 237
383 237
384 237
385 237
386 237
387 237
388 237
389 237
390 237
391 237
392 237
393 237
394 237
395 237
396 237
397 237
398 237
399 237
400 237
401 237
402 237
403 237
404 237
405 237
406 237
407 237
408 237
409 237
410 237
411 237
412 237
413 237
414 237
415 237
416 237
417 237
418 237
419 237
420 237
421 237
422 237
423 237
424 237
425 237
426 237
427 237
428 237
429 237
430 237
431 237
432 237
433 237
434 237
435 237
436 237
437 237
438 237
439 237
440 237
441 237
442 237
443 237
444 237
445 237
446 237
447 237
448 237
449 237
450 237
451 237
452 237
453 237
346 238
347 238
348 238
349 238
350 238
351 238
352 238
353 238
354 238
355 238
356 238
357 238
358 238
359 238
360 238
361 238
362 238
363 238
364 238
365 238
366 238
367 238
368 238
369 238
370 238
371 238
372 238
373 238
374 238
375 238
376 238
377 238
378 238
379 238
380 238
381 238
382 238
383 238
384 238
385 238
386 238
387 238
388 238
389 238
390 238
391 238
392 238
393 238
394 238
395 238
396 238
397 238
398 238
399 238
400 238
401 238
402 238
403 238
404 238
405 238
406 238
407 238
408 238
409 238
410 238
411 238
412 238
413 238
414 238
415 238
416 238
417 238
418 238
419 238
420 238
421 238
422 238
423 238
424 238
425 238
426 238
427 238
428 238
429 238
430 238
431 238
432 238
433 238
434 238
435 238
436 238
437 238
438 238
439 238
440 238
441 238
442 238
443 238
444 238
445 238
446 238
447 238
448 238
449 238
450 238
451 238
452 238
453 238
498 292
499 292
500 292
501 292
502 292
503 292
504 292
505 292
506 292
507 292
508 292
509 292
510 292
511 292
512 292
513 292
514 292
515 292
516 292
517 292
518 292
519 292
520 292
521 292
522 292
523 292
524 292
525 292
526 292
527 292
528 292
529 292
530 292
531 292
532 292
533 292
534 292
535 292
536 292
537 292
538 292
539 292
540 292
541 292
542 292
543 292
544 292
545 292
546 292
547 292
548 292
549 292
550 292
551 292
552 292
553 292
554 292
555 292
556 292
557 292
558 292
559 292
560 292
561 292
562 292
563 292
564 292
565 292
566 292
567 292
568 292
569 292
570 292
571 292
572 292
573 292
498 293
499 293
500 293
501 293
502 293
503 293
504 293
505 293
506 293
507 293
508 293
509 293
510 293
511 293
512 293
513 293
514 293
515 293
516 293
517 293
518 293
519 293
520 293
521 293
522 293
523 293
524 293
525 293
526 293
527 293
528 293
529 293
530 293
531 293
532 293
533 293
534 293
535 293
536 293
537 293
538 293
539 293
540 293
541 293
542 293
543 293
544 293
545 293
546 293
547 293
548 293
549 293
550 293
551 293
552 293
553 293
554 293
555 293
556 293
557 293
558 293
559 293
560 293
561 293
562 293
563 293
564 293
565 293
566 293
567 293
568 293
569 293
570 293
571 293
572 293
573 293
498 294
499 294
500 294
501 294
502 294
503 294
504 294
505 294
506 294
507 294
508 294
509 294
510 294
511 294
512 294
513 294
514 294
515 294
516 294
517 294
518 294
519 294
520 294
521 294
522 294
523 294
524 294
525 294
526 294
527 294
528 294
529 294
530 294
531 294
532 294
533 294
534 294
535 294
536 294
537 294
538 294
539 294
540 294
541 294
542 294
543 294
544 294
545 294
546 294
547 294
548 294
549 294
550 294
551 294
552 294
553 294
554 294
555 294
556 294
557 294
558 294
559 294
560 294
561 294
562 294
563 294
564 294
565 294
566 294
567 294
568 294
569 294
570 294
571 294
572 294
573 294
498 295
499 295
500 295
501 295
502 295
503 295
504 295
505 295
506 295
507 295
508 295
509 295
510 295
511 295
512 295
513 295
514 295
515 295
516 295
517 295
518 295
519 295
520 295
521 295
522 295
523 295
524 295
525 295
526 295
527 295
528 295
529 295
530 295
531 295
532 295
533 295
534 295
535 295
536 295
537 295
538 295
539 295
540 295
541 295
542 295
543 295
544 295
545 295
546 295
547 295
548 295
549 295
550 295
551 295
552 295
553 295
554 295
555 295
556 295
557 295
558 295
559 295
560 295
561 295
562 295
563 295
564 295
565 295
566 295
567 295
568 295
569 295
570 295
571 295
572 295
573 295
498 296
499 296
500 296
501 296
502 296
503 296
504 296
505 296
506 296
507 296
508 296
509 296
510 296
511 296
512 296
513 296
514 296
515 296
516 296
517 296
518 296
519 296
520 296
521 296
522 296
523 296
524 296
525 296
526 296
527 296
528 296
529 296
530 296
531 296
532 296
533 296
534 296
535 296
536 296
537 296
538 296
539 296
540 296
541 296
542 296
543 296
544 296
545 296
546 296
547 296
548 296
549 296
550 296
551 296
552 296
553 296
554 296
555 296
556 296
557 296
558 296
559 296
560 296
561 296
562 296
563 296
564 296
565 296
566 296
567 296
568 296
569 296
570 296
571 296
572 296
573 296
498 297
499 297
500 297
501 297
502 297
503 297
504 297
505 297
506 297
507 297
508 297
509 297
510 297
511 297
512 297
513 297
514 297
515 297
516 297
517 297
518 297
519 297
520 297
521 297
522 297
523 297
524 297
525 297
526 297
527 297
528 297
529 297
530 297
531 297
532 297
533 297
534 297
535 297
536 297
537 297
538 297
539 297
540 297
541 297
542 297
543 297
544 297
545 297
546 297
547 297
548 297
549 297
550 297
551 297
552 297
553 297
554 297
555 297
556 297
557 297
558 297
559 297
560 297
561 297
562 297
563 297
564 297
565 297
566 297
567 297
568 297
569 297
570 297
571 297
572 297
573 297
498 298
499 298
500 298
501 298
502 298
503 298
504 298
505 298
506 298
507 298
508 298
509 298
510 298
511 298
512 298
513 298
514 298
515 298
516 298
517 298
518 298
519 298
520 298
521 298
522 298
523 298
524 298
525 298
526 298
527 298
528 298
529 298
530 298
531 298
532 298
533 298
534 298
535 298
536 298
537 298
538 298
539 298
540 298
541 298
542 298
543 298
544 298
545 298
546 298
547 298
548 298
549 298
550 298
551 298
552 298
553 298
554 298
555 298
556 298
557 298
558 298
559 298
560 298
561 298
562 298
563 298
564 298
565 298
566 298
567 298
568 298
569 298
570 298
571 298
572 298
573 298
498 299
499 299
500 299
501 299
502 299
503 299
504 299
505 299
506 299
507 299
508 299
509 299
510 299
511 299
512 299
513 299
514 299
515 299
516 299
517 299
518 299
519 299
520 299
521 299
522 299
523 299
524 299
525 299
526 299
527 299
528 299
529 299
530 299
531 299
532 299
533 299
534 299
535 299
536 299
537 299
538 299
539 299
540 299
541 299
542 299
543 299
544 299
545 299
546 299
547 299
548 299
549 299
550 299
551 299
552 299
553 299
554 299
555 299
556 299
557 299
558 299
559 299
560 299
561 299
562 299
563 299
564 299
565 299
566 299
567 299
568 299
569 299
570 299
571 299
572 299
573 299
498 300
499 300
500 300
501 300
502 300
503 300
504 300
505 300
506 300
507 300
508 300
509 300
510 300
511 300
512 300
513 300
514 300
515 300
516 300
517 300
518 300
519 300
520 300
521 300
522 300
523 300
524 300
525 300
526 300
527 300
528 300
529 300
530 300
531 300
532 300
533 300
534 300
535 300
536 300
537 300
538 300
539 300
540 300
541 300
542 300
543 300
544 300
545 300
546 300
547 300
548 300
549 300
550 300
551 300
552 300
553 300
554 300
555 300
556 300
557 300
558 300
559 300
560 300
561 300
562 300
563 300
564 300
565 300
566 300
567 300
568 300
569 300
570 300
571 300
572 300
573 300
498 301
499 301
500 301
501 301
502 301
503 301
504 301
505 301
506 301
507 301
508 301
509 301
510 301
511 301
512 301
513 301
514 301
515 301
516 301
517 301
518 301
519 301
520 301
521 301
522 301
523 301
524 301
525 301
526 301
527 301
528 301
529 301
530 301
531 301
532 301
533 301
534 301
535 301
536 301
537 301
538 301
539 301
540 301
541 301
542 301
543 301
544 301
545 301
546 301
547 301
548 301
549 301
550 301
551 301
552 301
553 301
554 301
555 301
556 301
557 301
558 301
559 301
560 301
561 301
562 301
563 301
564 301
565 301
566 301
567 301
568 301
569 301
570 301
571 301
572 301
573 301
498 302
499 302
500 302
501 302
502 302
503 302
504 302
505 302
506 302
507 302
508 302
509 302
510 302
511 302
512 302
513 302
514 302
515 302
516 302
517 302
518 302
519 302
520 302
521 302
522 302
523 302
524 302
525 302
526 302
527 302
528 302
529 302
530 302
531 302
532 302
533 302
534 302
535 302
536 302
537 302
538 302
539 302
540 302
541 302
542 302
543 302
544 302
545 302
546 302
547 302
548 302
549 302
550 302
551 302
552 302
553 302
554 302
555 302
556 302
557 302
558 302
559 302
560 302
561 302
562 302
563 302
564 302
565 302
566 302
567 302
568 302
569 302
570 302
571 302
572 302
573 302
498 303
499 303
500 303
501 303
502 303
503 303
504 303
505 303
506 303
507 303
508 303
509 303
510 303
511 303
512 303
513 303
514 303
515 303
516 303
517 303
518 303
519 303
520 303
521 303
522 303
523 303
524 303
525 303
526 303
527 303
528 303
529 303
530 303
531 303
532 303
533 303
534 303
535 303
536 303
537 303
538 303
539 303
540 303
541 303
542 303
543 303
544 303
545 303
546 303
547 303
548 303
549 303
550 303
551 303
552 303
553 303
554 303
555 303
556 303
557 303
558 303
559 303
560 303
561 303
562 303
563 303
564 303
565 303
566 303
567 303
568 303
569 303
570 303
571 303
572 303
573 303
498 304
499 304
500 304
501 304
502 304
503 304
504 304
505 304
506 304
507 304
508 304
509 304
510 304
511 304
512 304
513 304
514 304
515 304
516 304
517 304
518 304
519 304
520 304
521 304
522 304
523 304
524 304
525 304
526 304
527 304
528 304
529 304
530 304
531 304
532 304
533 304
534 304
535 304
536 304
537 304
538 304
539 304
540 304
541 304
542 304
543 304
544 304
545 304
546 304
547 304
548 304
549 304
550 304
551 304
552 304
553 304
554 304
555 304
556 304
557 304
558 304
559 304
560 304
561 304
562 304
563 304
564 304
565 304
566 304
567 304
568 304
569 304
570 304
571 304
572 304
573 304
498 305
499 305
500 305
501 305
502 305
503 305
504 305
505 305
506 305
507 305
508 305
509 305
510 305
511 305
512 305
513 305
514 305
515 305
516 305
517 305
518 305
519 305
520 305
521 305
522 305
523 305
524 305
525 305
526 305
527 305
528 305
529 305
530 305
531 305
532 305
533 305
534 305
535 305
536 305
537 305
538 305
539 305
540 305
541 305
542 305
543 305
544 305
545 305
546 305
547 305
548 305
549 305
550 305
551 305
552 305
553 305
554 305
555 305
556 305
557 305
558 305
559 305
560 305
561 305
562 305
563 305
564 305
565 305
566 305
567 305
568 305
569 305
570 305
571 305
572 305
573 305
498 306
499 306
500 306
501 306
502 306
503 306
504 306
505 306
506 306
507 306
508 306
509 306
510 306
511 306
512 306
513 306
514 306
515 306
516 306
517 306
518 306
519 306
520 306
521 306
522 306
523 306
524 306
525 306
526 306
527 306
528 306
529 306
530 306
531 306
532 306
533 306
534 306
535 306
536 306
537 306
538 306
539 306
540 306
541 306
542 306
543 306
544 306
545 306
546 306
547 306
548 306
549 306
550 306
551 306
552 306
553 306
554 306
555 306
556 306
557 306
558 306
559 306
560 306
561 306
562 306
563 306
564 306
565 306
566 306
567 306
568 306
569 306
570 306
571 306
572 306
573 306
498 307
499 307
500 307
501 307
502 307
503 307
504 307
505 307
506 307
507 307
508 307
509 307
510 307
511 307
512 307
513 307
514 307
515 307
516 307
517 307
518 307
519 307
520 307
521 307
522 307
523 307
524 307
525 307
526 307
527 307
528 307
529 307
530 307
531 307
532 307
533 307
534 307
535 307
536 307
537 307
538 307
539 307
540 307
541 307
542 307
543 307
544 307
545 307
546 307
547 307
548 307
549 307
550 307
551 307
552 307
553 307
554 307
555 307
556 307
557 307
558 307
559 307
560 307
561 307
562 307
563 307
564 307
565 307
566 307
567 307
568 307
569 307
570 307
571 307
572 307
573 307
498 308
499 308
500 308
501 308
502 308
503 308
504 308
505 308
506 308
507 308
508 308
509 308
510 308
511 308
512 308
513 308
514 308
515 308
516 308
517 308
518 308
519 308
520 308
521 308
522 308
523 308
524 308
525 308
526 308
527 308
528 308
529 308
530 308
531 308
532 308
533 308
534 308
535 308
536 308
537 308
538 308
539 308
540 308
541 308
542 308
543 308
544 308
545 308
546 308
547 308
548 308
549 308
550 308
551 308
552 308
553 308
554 308
555 308
556 308
557 308
558 308
559 308
560 308
561 308
562 308
563 308
564 308
565 308
566 308
567 308
568 308
569 308
570 308
571 308
572 308
573 308
498 309
499 309
500 309
501 309
502 309
503 309
504 309
505 309
506 309
507 309
508 309
509 309
510 309
511 309
512 309
513 309
514 309
515 309
516 309
517 309
518 309
519 309
520 309
521 309
522 309
523 309
524 309
525 309
526 309
527 309
528 309
529 309
530 309
531 309
532 309
533 309
534 309
535 309
536 309
537 309
538 309
539 309
540 309
541 309
542 309
543 309
544 309
545 309
546 309
547 309
548 309
549 309
550 309
551 309
552 309
553 309
554 309
555 309
556 309
557 309
558 309
559 309
560 309
561 309
562 309
563 309
564 309
565 309
566 309
567 309
568 309
569 309
570 309
571 309
572 309
573 309
498 310
499 310
500 310
501 310
502 310
503 310
504 310
505 310
506 310
507 310
508 310
509 310
510 310
511 310
512 310
513 310
514 310
515 310
516 310
517 310
518 310
519 310
520 310
521 310
522 310
523 310
524 310
525 310
526 310
527 310
528 310
529 310
530 310
531 310
532 310
533 310
534 310
535 310
536 310
537 310
538 310
539 310
540 310
541 310
542 310
543 310
544 310
545 310
546 310
547 310
548 310
549 310
550 310
551 310
552 310
553 310
554 310
555 310
556 310
557 310
558 310
559 310
560 310
561 310
562 310
563 310
564 310
565 310
566 310
567 310
568 310
569 310
570 310
571 310
572 310
573 310
498 311
499 311
500 311
501 311
502 311
503 311
504 311
505 311
506 311
507 311
508 311
509 311
510 311
511 311
512 311
513 311
514 311
515 311
516 311
517 311
518 311
519 311
520 311
521 311
522 311
523 311
524 311
525 311
526 311
527 311
528 311
529 311
530 311
531 311
532 311
533 311
534 311
535 311
536 311
537 311
538 311
539 311
540 311
541 311
542 311
543 311
544 311
545 311
546 311
547 311
548 311
549 311
550 311
551 311
552 311
553 311
554 311
555 311
556 311
557 311
558 311
559 311
560 311
561 311
562 311
563 311
564 311
565 311
566 311
567 311
568 311
569 311
570 311
571 311
572 311
573 311
498 312
499 312
500 312
501 312
502 312
503 312
504 312
505 312
506 312
507 312
508 312
509 312
510 312
511 312
512 312
513 312
514 312
515 312
516 312
517 312
518 312
519 312
520 312
521 312
522 312
523 312
524 312
525 312
526 312
527 312
528 312
529 312
530 312
531 312
532 312
533 312
534 312
535 312
536 312
537 312
538 312
539 312
540 312
541 312
542 312
543 312
544 312
545 312
546 312
547 312
548 312
549 312
550 312
551 312
552 312
553 312
554 312
555 312
556 312
557 312
558 312
559 312
560 312
561 312
562 312
563 312
564 312
565 312
566 312
567 312
568 312
569 312
570 312
571 312
572 312
573 312
498 313
499 313
500 313
501 313
502 313
503 313
504 313
505 313
506 313
507 313
508 313
509 313
510 313
511 313
512 313
513 313
514 313
515 313
516 313
517 313
518 313
519 313
520 313
521 313
522 313
523 313
524 313
525 313
526 313
527 313
528 313
529 313
530 313
531 313
532 313
533 313
534 313
535 313
536 313
537 313
538 313
539 313
540 313
541 313
542 313
543 313
544 313
545 313
546 313
547 313
548 313
549 313
550 313
551 313
552 313
553 313
554 313
555 313
556 313
557 313
558 313
559 313
560 313
561 313
562 313
563 313
564 313
565 313
566 313
567 313
568 313
569 313
570 313
571 313
572 313
573 313
498 314
499 314
500 314
501 314
502 314
503 314
504 314
505 314
506 314
507 314
508 314
509 314
510 314
511 314
512 314
513 314
514 314
515 314
516 314
517 314
518 314
519 314
520 314
521 314
522 314
523 314
524 314
525 314
526 314
527 314
528 314
529 314
530 314
531 314
532 314
533 314
534 314
535 314
536 314
537 314
538 314
539 314
540 314
541 314
542 314
543 314
544 314
545 314
546 314
547 314
548 314
549 314
550 314
551 314
552 314
553 314
554 314
555 314
556 314
557 314
558 314
559 314
560 314
561 314
562 314
563 314
564 314
565 314
566 314
567 314
568 314
569 314
570 314
571 314
572 314
573 314
498 315
499 315
500 315
501 315
502 315
503 315
504 315
505 315
506 315
507 315
508 315
509 315
510 315
511 315
512 315
513 315
514 315
515 315
516 315
517 315
518 315
519 315
520 315
521 315
522 315
523 315
524 315
525 315
526 315
527 315
528 315
529 315
530 315
531 315
532 315
533 315
534 315
535 315
536 315
537 315
538 315
539 315
540 315
541 315
542 315
543 315
544 315
545 315
546 315
547 315
548 315
549 315
550 315
551 315
552 315
553 315
554 315
555 315
556 315
557 315
558 315
559 315
560 315
561 315
562 315
563 315
564 315
565 315
566 315
567 315
568 315
569 315
570 315
571 315
572 315
573 315
498 316
499 316
500 316
501 316
502 316
503 316
504 316
505 316
506 316
507 316
508 316
509 316
510 316
511 316
512 316
513 316
514 316
515 316
516 316
517 316
518 316
519 316
520 316
521 316
522 316
523 316
524 316
525 316
526 316
527 316
528 316
529 316
530 316
531 316
532 316
533 316
534 316
535 316
536 316
537 316
538 316
539 316
540 316
541 316
542 316
543 316
544 316
545 316
546 316
547 316
548 316
549 316
550 316
551 316
552 316
553 316
554 316
555 316
556 316
557 316
558 316
559 316
560 316
561 316
562 316
563 316
564 316
565 316
566 316
567 316
568 316
569 316
570 316
571 316
572 316
573 316
498 317
499 317
500 317
501 317
502 317
503 317
504 317
505 317
506 317
507 317
508 317
509 317
510 317
511 317
512 317
513 317
514 317
515 317
516 317
517 317
518 317
519 317
520 317
521 317
522 317
523 317
524 317
525 317
526 317
527 317
528 317
529 317
530 317
531 317
532 317
533 317
534 317
535 317
536 317
537 317
538 317
539 317
540 317
541 317
542 317
543 317
544 317
545 317
546 317
547 317
548 317
549 317
550 317
551 317
552 317
553 317
554 317
555 317
556 317
557 317
558 317
559 317
560 317
561 317
562 317
563 317
564 317
565 317
566 317
567 317
568 317
569 317
570 317
571 317
572 317
573 317
498 318
499 318
500 318
501 318
502 318
503 318
504 318
505 318
506 318
507 318
508 318
509 318
510 318
511 318
512 318
513 318
514 318
515 318
516 318
517 318
518 318
519 318
520 318
521 318
522 318
523 318
524 318
525 318
526 318
527 318
528 318
529 318
530 318
531 318
532 318
533 318
534 318
535 318
536 318
537 318
538 318
539 318
540 318
541 318
542 318
543 318
544 318
545 318
546 318
547 318
548 318
549 318
550 318
551 318
552 318
553 318
554 318
555 318
556 318
557 318
558 318
559 318
560 318
561 318
562 318
563 318
564 318
565 318
566 318
567 318
568 318
569 318
570 318
571 318
572 318
573 318
498 319
499 319
500 319
501 319
502 319
503 319
504 319
505 319
506 319
507 319
508 319
509 319
510 319
511 319
512 319
513 319
514 319
515 319
516 319
517 319
518 319
519 319
520 319
521 319
522 319
523 319
524 319
525 319
526 319
527 319
528 319
529 319
530 319
531 319
532 319
533 319
534 319
535 319
536 319
537 319
538 319
539 319
540 319
541 319
542 319
543 319
544 319
545 319
546 319
547 319
548 319
549 319
550 319
551 319
552 319
553 319
554 319
555 319
556 319
557 319
558 319
559 319
560 319
561 319
562 319
563 319
564 319
565 319
566 319
567 319
568 319
569 319
570 319
571 319
572 319
573 319
498 320
499 320
500 320
501 320
502 320
503 320
504 320
505 320
506 320
507 320
508 320
509 320
510 320
511 320
512 320
513 320
514 320
515 320
516 320
517 320
518 320
519 320
520 320
521 320
522 320
523 320
524 320
525 320
526 320
527 320
528 320
529 320
530 320
531 320
532 320
533 320
534 320
535 320
536 320
537 320
538 320
539 320
540 320
541 320
542 320
543 320
544 320
545 320
546 320
547 320
548 320
549 320
550 320
551 320
552 320
553 320
554 320
555 320
556 320
557 320
558 320
559 320
560 320
561 320
562 320
563 320
564 320
565 320
566 320
567 320
568 320
569 320
570 320
571 320
572 320
573 320
498 321
499 321
500 321
501 321
502 321
503 321
504 321
505 321
506 321
507 321
508 321
509 321
510 321
511 321
512 321
513 321
514 321
515 321
516 321
517 321
518 321
519 321
520 321
521 321
522 321
523 321
524 321
525 321
526 321
527 321
528 321
529 321
530 321
531 321
532 321
533 321
534 321
535 321
536 321
537 321
538 321
539 321
540 321
541 321
542 321
543 321
544 321
545 321
546 321
547 321
548 321
549 321
550 321
551 321
552 321
553 321
554 321
555 321
556 321
557 321
558 321
559 321
560 321
561 321
562 321
563 321
564 321
565 321
566 321
567 321
568 321
569 321
570 321
571 321
572 321
573 321
498 322
499 322
500 322
501 322
502 322
503 322
504 322
505 322
506 322
507 322
508 322
509 322
510 322
511 322
512 322
513 322
514 322
515 322
516 322
517 322
518 322
519 322
520 322
521 322
522 322
523 322
524 322
525 322
526 322
527 322
528 322
529 322
530 322
531 322
532 322
533 322
534 322
535 322
536 322
537 322
538 322
539 322
540 322
541 322
542 322
543 322
544 322
545 322
546 322
547 322
548 322
549 322
550 322
551 322
552 322
553 322
554 322
555 322
556 322
557 322
558 322
559 322
560 322
561 322
562 322
563 322
564 322
565 322
566 322
567 322
568 322
569 322
570 322
571 322
572 322
573 322
498 323
499 323
500 323
501 323
502 323
503 323
504 323
505 323
506 323
507 323
508 323
509 323
510 323
511 323
512 323
513 323
514 323
515 323
516 323
517 323
518 323
519 323
520 323
521 323
522 323
523 323
524 323
525 323
526 323
527 323
528 323
529 323
530 323
531 323
532 323
533 323
534 323
535 323
536 323
537 323
538 323
539 323
540 323
541 323
542 323
543 323
544 323
545 323
546 323
547 323
548 323
549 323
550 323
551 323
552 323
553 323
554 323
555 323
556 323
557 323
558 323
559 323
560 323
561 323
562 323
563 323
564 323
565 323
566 323
567 323
568 323
569 323
570 323
571 323
572 323
573 323
498 324
499 324
500 324
501 324
502 324
503 324
504 324
505 324
506 324
507 324
508 324
509 324
510 324
511 324
512 324
513 324
514 324
515 324
516 324
517 324
518 324
519 324
520 324
521 324
522 324
523 324
524 324
525 324
526 324
527 324
528 324
529 324
530 324
531 324
532 324
533 324
534 324
535 324
536 324
537 324
538 324
539 324
540 324
541 324
542 324
543 324
544 324
545 324
546 324
547 324
548 324
549 324
550 324
551 324
552 324
553 324
554 324
555 324
556 324
557 324
558 324
559 324
560 324
561 324
562 324
563 324
564 324
565 324
566 324
567 324
568 324
569 324
570 324
571 324
572 324
573 324
498 325
499 325
500 325
501 325
502 325
503 325
504 325
505 325
506 325
507 325
508 325
509 325
510 325
511 325
512 325
513 325
514 325
515 325
516 325
517 325
518 325
519 325
520 325
521 325
522 325
523 325
524 325
525 325
526 325
527 325
528 325
529 325
530 325
531 325
532 325
533 325
534 325
535 325
536 325
537 325
538 325
539 325
540 325
541 325
542 325
543 325
544 325
545 325
546 325
547 325
548 325
549 325
550 325
551 325
552 325
553 325
554 325
555 325
556 325
557 325
558 325
559 325
560 325
561 325
562 325
563 325
564 325
565 325
566 325
567 325
568 325
569 325
570 325
571 325
572 325
573 325
498 326
499 326
500 326
501 326
502 326
503 326
504 326
505 326
506 326
507 326
508 326
509 326
510 326
511 326
512 326
513 326
514 326
515 326
516 326
517 326
518 326
519 326
520 326
521 326
522 326
523 326
524 326
525 326
526 326
527 326
528 326
529 326
530 326
531 326
532 326
533 326
534 326
535 326
536 326
537 326
538 326
539 326
540 326
541 326
542 326
543 326
544 326
545 326
546 326
547 326
548 326
549 326
550 326
551 326
552 326
553 326
554 326
555 326
556 326
557 326
558 326
559 326
560 326
561 326
562 326
563 326
564 326
565 326
566 326
567 326
568 326
569 326
570 326
571 326
572 326
573 326
498 327
499 327
500 327
501 327
502 327
503 327
504 327
505 327
506 327
507 327
508 327
509 327
510 327
511 327
512 327
513 327
514 327
515 327
516 327
517 327
518 327
519 327
520 327
521 327
522 327
523 327
524 327
525 327
526 327
527 327
528 327
529 327
530 327
531 327
532 327
533 327
534 327
535 327
536 327
537 327
538 327
539 327
540 327
541 327
542 327
543 327
544 327
545 327
546 327
547 327
548 327
549 327
550 327
551 327
552 327
553 327
554 327
555 327
556 327
557 327
558 327
559 327
560 327
561 327
562 327
563 327
564 327
565 327
566 327
567 327
568 327
569 327
570 327
571 327
572 327
573 327
498 328
499 328
500 328
501 328
502 328
503 328
504 328
505 328
506 328
507 328
508 328
509 328
510 328
511 328
512 328
513 328
514 328
515 328
516 328
517 328
518 328
519 328
520 328
521 328
522 328
523 328
524 328
525 328
526 328
527 328
528 328
529 328
530 328
531 328
532 328
533 328
534 328
535 328
536 328
537 328
538 328
539 328
540 328
541 328
542 328
543 328
544 328
545 328
546 328
547 328
548 328
549 328
550 328
551 328
552 328
553 328
554 328
555 328
556 328
557 328
558 328
559 328
560 328
561 328
562 328
563 328
564 328
565 328
566 328
567 328
568 328
569 328
570 328
571 328
572 328
573 328
498 329
499 329
500 329
501 329
502 329
503 329
504 329
505 329
506 329
507 329
508 329
509 329
510 329
511 329
512 329
513 329
514 329
515 329
516 329
517 329
518 329
519 329
520 329
521 329
522 329
523 329
524 329
525 329
526 329
527 329
528 329
529 329
530 329
531 329
532 329
533 329
534 329
535 329
536 329
537 329
538 329
539 329
540 329
541 329
542 329
543 329
544 329
545 329
546 329
547 329
548 329
549 329
550 329
551 329
552 329
553 329
554 329
555 329
556 329
557 329
558 329
559 329
560 329
561 329
562 329
563 329
564 329
565 329
566 329
567 329
568 329
569 329
570 329
571 329
572 329
573 329
498 330
499 330
500 330
501 330
502 330
503 330
504 330
505 330
506 330
507 330
508 330
509 330
510 330
511 330
512 330
513 330
514 330
515 330
516 330
517 330
518 330
519 330
520 330
521 330
522 330
523 330
524 330
525 330
526 330
527 330
528 330
529 330
530 330
531 330
532 330
533 330
534 330
535 330
536 330
537 330
538 330
539 330
540 330
541 330
542 330
543 330
544 330
545 330
546 330
547 330
548 330
549 330
550 330
551 330
552 330
553 330
554 330
555 330
556 330
557 330
558 330
559 330
560 330
561 330
562 330
563 330
564 330
565 330
566 330
567 330
568 330
569 330
570 330
571 330
572 330
573 330
498 331
499 331
500 331
501 331
502 331
503 331
504 331
505 331
506 331
507 331
508 331
509 331
510 331
511 331
512 331
513 331
514 331
515 331
516 331
517 331
518 331
519 331
520 331
521 331
522 331
523 331
524 331
525 331
526 331
527 331
528 331
529 331
530 331
531 331
532 331
533 331
534 331
535 331
536 331
537 331
538 331
539 331
540 331
541 331
542 331
543 331
544 331
545 331
546 331
547 331
548 331
549 331
550 331
551 331
552 331
553 331
554 331
555 331
556 331
557 331
558 331
559 331
560 331
561 331
562 331
563 331
564 331
565 331
566 331
567 331
568 331
569 331
570 331
571 331
572 331
573 331
498 332
499 332
500 332
501 332
502 332
503 332
504 332
505 332
506 332
507 332
508 332
509 332
510 332
511 332
512 332
513 332
514 332
515 332
516 332
517 332
518 332
519 332
520 332
521 332
522 332
523 332
524 332
525 332
526 332
527 332
528 332
529 332
530 332
531 332
532 332
533 332
534 332
535 332
536 332
537 332
538 332
539 332
540 332
541 332
542 332
543 332
544 332
545 332
546 332
547 332
548 332
549 332
550 332
551 332
552 332
553 332
554 332
555 332
556 332
557 332
558 332
559 332
560 332
561 332
562 332
563 332
564 332
565 332
566 332
567 332
568 332
569 332
570 332
571 332
572 332
573 332
498 333
499 333
500 333
501 333
502 333
503 333
504 333
505 333
506 333
507 333
508 333
509 333
510 333
511 333
512 333
513 333
514 333
515 333
516 333
517 333
518 333
519 333
520 333
521 333
522 333
523 333
524 333
525 333
526 333
527 333
528 333
529 333
530 333
531 333
532 333
533 333
534 333
535 333
536 333
537 333
538 333
539 333
540 333
541 333
542 333
543 333
544 333
545 333
546 333
547 333
548 333
549 333
550 333
551 333
552 333
553 333
554 333
555 333
556 333
557 333
558 333
559 333
560 333
561 333
562 333
563 333
564 333
565 333
566 333
567 333
568 333
569 333
570 333
571 333
572 333
573 333
498 334
499 334
500 334
501 334
502 334
503 334
504 334
505 334
506 334
507 334
508 334
509 334
510 334
511 334
512 334
513 334
514 334
515 334
516 334
517 334
518 334
519 334
520 334
521 334
522 334
523 334
524 334
525 334
526 334
527 334
528 334
529 334
530 334
531 334
532 334
533 334
534 334
535 334
536 334
537 334
538 334
539 334
540 334
541 334
542 334
543 334
544 334
545 334
546 334
547 334
548 334
549 334
550 334
551 334
552 334
553 334
554 334
555 334
556 334
557 334
558 334
559 334
560 334
561 334
562 334
563 334
564 334
565 334
566 334
567 334
568 334
569 334
570 334
571 334
572 334
573 334
498 335
499 335
500 335
501 335
502 335
503 335
504 335
505 335
506 335
507 335
508 335
509 335
510 335
511 335
512 335
513 335
514 335
515 335
516 335
517 335
518 335
519 335
520 335
521 335
522 335
523 335
524 335
525 335
526 335
527 335
528 335
529 335
530 335
531 335
532 335
533 335
534 335
535 335
536 335
537 335
538 335
539 335
540 335
541 335
542 335
543 335
544 335
545 335
546 335
547 335
548 335
549 335
550 335
551 335
552 335
553 335
554 335
555 335
556 335
557 335
558 335
559 335
560 335
561 335
562 335
563 335
564 335
565 335
566 335
567 335
568 335
569 335
570 335
571 335
572 335
573 335
618 373
619 373
620 373
621 373
622 373
623 373
624 373
625 373
626 373
627 373
628 373
629 373
630 373
631 373
632 373
633 373
634 373
635 373
636 373
637 373
638 373
639 373
640 373
641 373
642 373
643 373
644 373
645 373
646 373
647 373
648 373
649 373
650 373
651 373
652 373
653 373
654 373
655 373
656 373
657 373
658 373
659 373
660 373
661 373
662 373
663 373
664 373
665 373
666 373
667 373
668 373
669 373
670 373
671 373
672 373
673 373
674 373
675 373
676 373
677 373
678 373
679 373
680 373
681 373
682 373
683 373
684 373
685 373
686 373
687 373
688 373
689 373
690 373
691 373
692 373
693 373
618 374
619 374
620 374
621 374
622 374
623 374
624 374
625 374
626 374
627 374
628 374
629 374
630 374
631 374
632 374
633 374
634 374
635 374
636 374
637 374
638 374
639 374
640 374
641 374
642 374
643 374
644 374
645 374
646 374
647 374
648 374
649 374
650 374
651 374
652 374
653 374
654 374
655 374
656 374
657 374
658 374
659 374
660 374
661 374
662 374
663 374
664 374
665 374
666 374
667 374
668 374
669 374
670 374
671 374
672 374
673 374
674 374
675 374
676 374
677 374
678 374
679 374
680 374
681 374
682 374
683 374
684 374
685 374
686 374
687 374
688 374
689 374
690 374
691 374
692 374
693 374
618 375
619 375
620 375
621 375
622 375
623 375
624 375
625 375
626 375
627 375
628 375
629 375
630 375
631 375
632 375
633 375
634 375
635 375
636 375
637 375
638 375
639 375
640 375
641 375
642 375
643 375
644 375
645 375
646 375
647 375
648 375
649 375
650 375
651 375
652 375
653 375
654 375
655 375
656 375
657 375
658 375
659 375
660 375
661 375
662 375
663 375
664 375
665 375
666 375
667 375
668 375
669 375
670 375
671 375
672 375
673 375
674 375
675 375
676 375
677 375
678 375
679 375
680 375
681 375
682 375
683 375
684 375
685 375
686 375
687 375
688 375
689 375
690 375
691 375
692 375
693 375
618 376
619 376
620 376
621 376
622 376
623 376
624 376
625 376
626 376
627 376
628 376
629 376
630 376
631 376
632 376
633 376
634 376
635 376
636 376
637 376
638 376
639 376
640 376
641 376
642 376
643 376
644 376
645 376
646 376
647 376
648 376
649 376
650 376
651 376
652 376
653 376
654 376
655 376
656 376
657 376
658 376
659 376
660 376
661 376
662 376
663 376
664 376
665 376
666 376
667 376
668 376
669 376
670 376
671 376
672 376
673 376
674 376
675 376
676 376
677 376
678 376
679 376
680 376
681 376
682 376
683 376
684 376
685 376
686 376
687 376
688 376
689 376
690 376
691 376
692 376
693 376
618 377
619 377
620 377
621 377
622 377
623 377
624 377
625 377
626 377
627 377
628 377
629 377
630 377
631 377
632 377
633 377
634 377
635 377
636 377
637 377
638 377
639 377
640 377
641 377
642 377
643 377
644 377
645 377
646 377
647 377
648 377
649 377
650 377
651 377
652 377
653 377
654 377
655 377
656 377
657 377
658 377
659 377
660 377
661 377
662 377
663 377
664 377
665 377
666 377
667 377
668 377
669 377
670 377
671 377
672 377
673 377
674 377
675 377
676 377
677 377
678 377
679 377
680 377
681 377
682 377
683 377
684 377
685 377
686 377
687 377
688 377
689 377
690 377
691 377
692 377
693 377
618 378
619 378
620 378
621 378
622 378
623 378
624 378
625 378
626 378
627 378
628 378
629 378
630 378
631 378
632 378
633 378
634 378
635 378
636 378
637 378
638 378
639 378
640 378
641 378
642 378
643 378
644 378
645 378
646 378
647 378
648 378
649 378
650 378
651 378
652 378
653 378
654 378
655 378
656 378
657 378
658 378
659 378
660 378
661 378
662 378
663 378
664 378
665 378
666 378
667 378
668 378
669 378
670 378
671 378
672 378
673 378
674 378
675 378
676 378
677 378
678 378
679 378
680 378
681 378
682 378
683 378
684 378
685 378
686 378
687 378
688 378
689 378
690 378
691 378
692 378
693 378
618 379
619 379
620 379
621 379
622 379
623 379
624 379
625 379
626 379
627 379
628 379
629 379
630 379
631 379
632 379
633 379
634 379
635 379
636 379
637 379
638 379
639 379
640 379
641 379
642 379
643 379
644 379
645 379
646 379
647 379
648 379
649 379
650 379
651 379
652 379
653 379
654 379
655 379
656 379
657 379
658 379
659 379
660 379
661 379
662 379
663 379
664 379
665 379
666 379
667 379
668 379
669 379
670 379
671 379
672 379
673 379
674 379
675 379
676 379
677 379
678 379
679 379
680 379
681 379
682 379
683 379
684 379
685 379
686 379
687 379
688 379
689 379
690 379
691 379
692 379
693 379
618 380
619 380
620 380
621 380
622 380
623 380
624 380
625 380
626 380
627 380
628 380
629 380
630 380
631 380
632 380
633 380
634 380
635 380
636 380
637 380
638 380
639 380
640 380
641 380
642 380
643 380
644 380
645 380
646 380
647 380
648 380
649 380
650 380
651 380
652 380
653 380
654 380
655 380
656 380
657 380
658 380
659 380
660 380
661 380
662 380
663 380
664 380
665 380
666 380
667 380
668 380
669 380
670 380
671 380
672 380
673 380
674 380
675 380
676 380
677 380
678 380
679 380
680 380
681 380
682 380
683 380
684 380
685 380
686 380
687 380
688 380
689 380
690 380
691 380
692 380
693 380
618 381
619 381
620 381
621 381
622 381
623 381
624 381
625 381
626 381
627 381
628 381
629 381
630 381
631 381
632 381
633 381
634 381
635 381
636 381
637 381
638 381
639 381
640 381
641 381
642 381
643 381
644 381
645 381
646 381
647 381
648 381
649 381
650 381
651 381
652 381
653 381
654 381
655 381
656 381
657 381
658 381
659 381
660 381
661 381
662 381
663 381
664 381
665 381
666 381
667 381
668 381
669 381
670 381
671 381
672 381
673 381
674 381
675 381
676 381
677 381
678 381
679 381
680 381
681 381
682 381
683 381
684 381
685 381
686 381
687 381
688 381
689 381
690 381
691 381
692 381
693 381
618 382
619 382
620 382
621 382
622 382
623 382
624 382
625 382
626 382
627 382
628 382
629 382
630 382
631 382
632 382
633 382
634 382
635 382
636 382
637 382
638 382
639 382
640 382
641 382
642 382
643 382
644 382
645 382
646 382
647 382
648 382
649 382
650 382
651 382
652 382
653 382
654 382
655 382
656 382
657 382
658 382
659 382
660 382
661 382
662 382
663 382
664 382
665 382
666 382
667 382
668 382
669 382
670 382
671 382
672 382
673 382
674 382
675 382
676 382
677 382
678 382
679 382
680 382
681 382
682 382
683 382
684 382
685 382
686 382
687 382
688 382
689 382
690 382
691 382
692 382
693 382
618 383
619 383
620 383
621 383
622 383
623 383
624 383
625 383
626 383
627 383
628 383
629 383
630 383
631 383
632 383
633 383
634 383
635 383
636 383
637 383
638 383
639 383
640 383
641 383
642 383
643 383
644 383
645 383
646 383
647 383
648 383
649 383
650 383
651 383
652 383
653 383
654 383
655 383
656 383
657 383
658 383
659 383
660 383
661 383
662 383
663 383
664 383
665 383
666 383
667 383
668 383
669 383
670 383
671 383
672 383
673 383
674 383
675 383
676 383
677 383
678 383
679 383
680 383
681 383
682 383
683 383
684 383
685 383
686 383
687 383
688 383
689 383
690 383
691 383
692 383
693 383
618 384
619 384
620 384
621 384
622 384
623 384
624 384
625 384
626 384
627 384
628 384
629 384
630 384
631 384
632 384
633 384
634 384
635 384
636 384
637 384
638 384
639 384
640 384
641 384
642 384
643 384
644 384
645 384
646 384
647 384
648 384
649 384
650 384
651 384
652 384
653 384
654 384
655 384
656 384
657 384
658 384
659 384
660 384
661 384
662 384
663 384
664 384
665 384
666 384
667 384
668 384
669 384
670 384
671 384
672 384
673 384
674 384
675 384
676 384
677 384
678 384
679 384
680 384
681 384
682 384
683 384
684 384
685 384
686 384
687 384
688 384
689 384
690 384
691 384
692 384
693 384
618 385
619 385
620 385
621 385
622 385
623 385
624 385
625 385
626 385
627 385
628 385
629 385
630 385
631 385
632 385
633 385
634 385
635 385
636 385
637 385
638 385
639 385
640 385
641 385
642 385
643 385
644 385
645 385
646 385
647 385
648 385
649 385
650 385
651 385
652 385
653 385
654 385
655 385
656 385
657 385
658 385
659 385
660 385
661 385
662 385
663 385
664 385
665 385
666 385
667 385
668 385
669 385
670 385
671 385
672 385
673 385
674 385
675 385
676 385
677 385
678 385
679 385
680 385
681 385
682 385
683 385
684 385
685 385
686 385
687 385
688 385
689 385
690 385
691 385
692 385
693 385
618 386
619 386
620 386
621 386
622 386
623 386
624 386
625 386
626 386
627 386
628 386
629 386
630 386
631 386
632 386
633 386
634 386
635 386
636 386
637 386
638 386
639 386
640 386
641 386
642 386
643 386
644 386
645 386
646 386
647 386
648 386
649 386
650 386
651 386
652 386
653 386
654 386
655 386
656 386
657 386
658 386
659 386
660 386
661 386
662 386
663 386
664 386
665 386
666 386
667 386
668 386
669 386
670 386
671 386
672 386
673 386
674 386
675 386
676 386
677 386
678 386
679 386
680 386
681 386
682 386
683 386
684 386
685 386
686 386
687 386
688 386
689 386
690 386
691 386
692 386
693 386
618 387
619 387
620 387
621 387
622 387
623 387
624 387
625 387
626 387
627 387
628 387
629 387
630 387
631 387
632 387
633 387
634 387
635 387
636 387
637 387
638 387
639 387
640 387
641 387
642 387
643 387
644 387
645 387
646 387
647 387
648 387
649 387
650 387
651 387
652 387
653 387
654 387
655 387
656 387
657 387
658 387
659 387
660 387
661 387
662 387
663 387
664 387
665 387
666 387
667 387
668 387
669 387
670 387
671 387
672 387
673 387
674 387
675 387
676 387
677 387
678 387
679 387
680 387
681 387
682 387
683 387
684 387
685 387
686 387
687 387
688 387
689 387
690 387
691 387
692 387
693 387
618 388
619 388
620 388
621 388
622 388
623 388
624 388
625 388
626 388
627 388
628 388
629 388
630 388
631 388
632 388
633 388
634 388
635 388
636 388
637 388
638 388
639 388
640 388
641 388
642 388
643 388
644 388
645 388
646 388
647 388
648 388
649 388
650 388
651 388
652 388
653 388
654 388
655 388
656 388
657 388
658 388
659 388
660 388
661 388
662 388
663 388
664 388
665 388
666 388
667 388
668 388
669 388
670 388
671 388
672 388
673 388
674 388
675 388
676 388
677 388
678 388
679 388
680 388
681 388
682 388
683 388
684 388
685 388
686 388
687 388
688 388
689 388
690 388
691 388
692 388
693 388
618 389
619 389
620 389
621 389
622 389
623 389
624 389
625 389
626 389
627 389
628 389
629 389
630 389
631 389
632 389
633 389
634 389
635 389
636 389
637 389
638 389
639 389
640 389
641 389
642 389
643 389
644 389
645 389
646 389
647 389
648 389
649 389
650 389
651 389
652 389
653 389
654 389
655 389
656 389
657 389
658 389
659 389
660 389
661 389
662 389
663 389
664 389
665 389
666 389
667 389
668 389
669 389
670 389
671 389
672 389
673 389
674 389
675 389
676 389
677 389
678 389
679 389
680 389
681 389
682 389
683 389
684 389
685 389
686 389
687 389
688 389
689 389
690 389
691 389
692 389
693 389
618 390
619 390
620 390
621 390
622 390
623 390
624 390
625 390
626 390
627 390
628 390
629 390
630 390
631 390
632 390
633 390
634 390
635 390
636 390
637 390
638 390
639 390
640 390
641 390
642 390
643 390
644 390
645 390
646 390
647 390
648 390
649 390
650 390
651 390
652 390
653 390
654 390
655 390
656 390
657 390
658 390
659 390
660 390
661 390
662 390
663 390
664 390
665 390
666 390
667 390
668 390
669 390
670 390
671 390
672 390
673 390
674 390
675 390
676 390
677 390
678 390
679 390
680 390
681 390
682 390
683 390
684 390
685 390
686 390
687 390
688 390
689 390
690 390
691 390
692 390
693 390
618 391
619 391
620 391
621 391
622 391
623 391
624 391
625 391
626 391
627 391
628 391
629 391
630 391
631 391
632 391
633 391
634 391
635 391
636 391
637 391
638 391
639 391
640 391
641 391
642 391
643 391
644 391
645 391
646 391
647 391
648 391
649 391
650 391
651 391
652 391
653 391
654 391
655 391
656 391
657 391
658 391
659 391
660 391
661 391
662 391
663 391
664 391
665 391
666 391
667 391
668 391
669 391
670 391
671 391
672 391
673 391
674 391
675 391
676 391
677 391
678 391
679 391
680 391
681 391
682 391
683 391
684 391
685 391
686 391
687 391
688 391
689 391
690 391
691 391
692 391
693 391
618 392
619 392
620 392
621 392
622 392
623 392
624 392
625 392
626 392
627 392
628 392
629 392
630 392
631 392
632 392
633 392
634 392
635 392
636 392
637 392
638 392
639 392
640 392
641 392
642 392
643 392
644 392
645 392
646 392
647 392
648 392
649 392
650 392
651 392
652 392
653 392
654 392
655 392
656 392
657 392
658 392
659 392
660 392
661 392
662 392
663 392
664 392
665 392
666 392
667 392
668 392
669 392
670 392
671 392
672 392
673 392
674 392
675 392
676 392
677 392
678 392
679 392
680 392
681 392
682 392
683 392
684 392
685 392
686 392
687 392
688 392
689 392
690 392
691 392
692 392
693 392
618 393
619 393
620 393
621 393
622 393
623 393
624 393
625 393
626 393
627 393
628 393
629 393
630 393
631 393
632 393
633 393
634 393
635 393
636 393
637 393
638 393
639 393
640 393
641 393
642 393
643 393
644 393
645 393
646 393
647 393
648 393
649 393
650 393
651 393
652 393
653 393
654 393
655 393
656 393
657 393
658 393
659 393
660 393
661 393
662 393
663 393
664 393
665 393
666 393
667 393
668 393
669 393
670 393
671 393
672 393
673 393
674 393
675 393
676 393
677 393
678 393
679 393
680 393
681 393
682 393
683 393
684 393
685 393
686 393
687 393
688 393
689 393
690 393
691 393
692 393
693 393
618 394
619 394
620 394
621 394
622 394
623 394
624 394
625 394
626 394
627 394
628 394
629 394
630 394
631 394
632 394
633 394
634 394
635 394
636 394
637 394
638 394
639 394
640 394
641 394
642 394
643 394
644 394
645 394
646 394
647 394
648 394
649 394
650 394
651 394
652 394
653 394
654 394
655 394
656 394
657 394
658 394
659 394
660 394
661 394
662 394
663 394
664 394
665 394
666 394
667 394
668 394
669 394
670 394
671 394
672 394
673 394
674 394
675 394
676 394
677 394
678 394
679 394
680 394
681 394
682 394
683 394
684 394
685 394
686 394
687 394
688 394
689 394
690 394
691 394
692 394
693 394
618 395
619 395
620 395
621 395
622 395
623 395
624 395
625 395
626 395
627 395
628 395
629 395
630 395
631 395
632 395
633 395
634 395
635 395
636 395
637 395
638 395
639 395
640 395
641 395
642 395
643 395
644 395
645 395
646 395
647 395
648 395
649 395
650 395
651 395
652 395
653 395
654 395
655 395
656 395
657 395
658 395
659 395
660 395
661 395
662 395
663 395
664 395
665 395
666 395
667 395
668 395
669 395
670 395
671 395
672 395
673 395
674 395
675 395
676 395
677 395
678 395
679 395
680 395
681 395
682 395
683 395
684 395
685 395
686 395
687 395
688 395
689 395
690 395
691 395
692 395
693 395
618 396
619 396
620 396
621 396
622 396
623 396
624 396
625 396
626 396
627 396
628 396
629 396
630 396
631 396
632 396
633 396
634 396
635 396
636 396
637 396
638 396
639 396
640 396
641 396
642 396
643 396
644 396
645 396
646 396
647 396
648 396
649 396
650 396
651 396
652 396
653 396
654 396
655 396
656 396
657 396
658 396
659 396
660 396
661 396
662 396
663 396
664 396
665 396
666 396
667 396
668 396
669 396
670 396
671 396
672 396
673 396
674 396
675 396
676 396
677 396
678 396
679 396
680 396
681 396
682 396
683 396
684 396
685 396
686 396
687 396
688 396
689 396
690 396
691 396
692 396
693 396
618 397
619 397
620 397
621 397
622 397
623 397
624 397
625 397
626 397
627 397
628 397
629 397
630 397
631 397
632 397
633 397
634 397
635 397
636 397
637 397
638 397
639 397
640 397
641 397
642 397
643 397
644 397
645 397
646 397
647 397
648 397
649 397
650 397
651 397
652 397
653 397
654 397
655 397
656 397
657 397
658 397
659 397
660 397
661 397
662 397
663 397
664 397
665 397
666 397
667 397
668 397
669 397
670 397
671 397
672 397
673 397
674 397
675 397
676 397
677 397
678 397
679 397
680 397
681 397
682 397
683 397
684 397
685 397
686 397
687 397
688 397
689 397
690 397
691 397
692 397
693 397
618 398
619 398
620 398
621 398
622 398
623 398
624 398
625 398
626 398
627 398
628 398
629 398
630 398
631 398
632 398
633 398
634 398
635 398
636 398
637 398
638 398
639 398
640 398
641 398
642 398
643 398
644 398
645 398
646 398
647 398
648 398
649 398
650 398
651 398
652 398
653 398
654 398
655 398
656 398
657 398
658 398
659 398
660 398
661 398
662 398
663 398
664 398
665 398
666 398
667 398
668 398
669 398
670 398
671 398
672 398
673 398
674 398
675 398
676 398
677 398
678 398
679 398
680 398
681 398
682 398
683 398
684 398
685 398
686 398
687 398
688 398
689 398
690 398
691 398
692 398
693 398
618 399
619 399
620 399
621 399
622 399
623 399
624 399
625 399
626 399
627 399
628 399
629 399
630 399
631 399
632 399
633 399
634 399
635 399
636 399
637 399
638 399
639 399
640 399
641 399
642 399
643 399
644 399
645 399
646 399
647 399
648 399
649 399
650 399
651 399
652 399
653 399
654 399
655 399
656 399
657 399
658 399
659 399
660 399
661 399
662 399
663 399
664 399
665 399
666 399
667 399
668 399
669 399
670 399
671 399
672 399
673 399
674 399
675 399
676 399
677 399
678 399
679 399
680 399
681 399
682 399
683 399
684 399
685 399
686 399
687 399
688 399
689 399
690 399
691 399
692 399
693 399
618 400
619 400
620 400
621 400
622 400
623 400
624 400
625 400
626 400
627 400
628 400
629 400
630 400
631 400
632 400
633 400
634 400
635 400
636 400
637 400
638 400
639 400
640 400
641 400
642 400
643 400
644 400
645 400
646 400
647 400
648 400
649 400
650 400
651 400
652 400
653 400
654 400
655 400
656 400
657 400
658 400
659 400
660 400
661 400
662 400
663 400
664 400
665 400
666 400
667 400
668 400
669 400
670 400
671 400
672 400
673 400
674 400
675 400
676 400
677 400
678 400
679 400
680 400
681 400
682 400
683 400
684 400
685 400
686 400
687 400
688 400
689 400
690 400
691 400
692 400
693 400
618 401
619 401
620 401
621 401
622 401
623 401
624 401
625 401
626 401
627 401
628 401
629 401
630 401
631 401
632 401
633 401
634 401
635 401
636 401
637 401
638 401
639 401
640 401
641 401
642 401
643 401
644 401
645 401
646 401
647 401
648 401
649 401
650 401
651 401
652 401
653 401
654 401
655 401
656 401
657 401
658 401
659 401
660 401
661 401
662 401
663 401
664 401
665 401
666 401
667 401
668 401
669 401
670 401
671 401
672 401
673 401
674 401
675 401
676 401
677 401
678 401
679 401
680 401
681 401
682 401
683 401
684 401
685 401
686 401
687 401
688 401
689 401
690 401
691 401
692 401
693 401
618 402
619 402
620 402
621 402
622 402
623 402
624 402
625 402
626 402
627 402
628 402
629 402
630 402
631 402
632 402
633 402
634 402
635 402
636 402
637 402
638 402
639 402
640 402
641 402
642 402
643 402
644 402
645 402
646 402
647 402
648 402
649 402
650 402
651 402
652 402
653 402
654 402
655 402
656 402
657 402
658 402
659 402
660 402
661 402
662 402
663 402
664 402
665 402
666 402
667 402
668 402
669 402
670 402
671 402
672 402
673 402
674 402
675 402
676 402
677 402
678 402
679 402
680 402
681 402
682 402
683 402
684 402
685 402
686 402
687 402
688 402
689 402
690 402
691 402
692 402
693 402
618 403
619 403
620 403
621 403
622 403
623 403
624 403
625 403
626 403
627 403
628 403
629 403
630 403
631 403
632 403
633 403
634 403
635 403
636 403
637 403
638 403
639 403
640 403
641 403
642 403
643 403
644 403
645 403
646 403
647 403
648 403
649 403
650 403
651 403
652 403
653 403
654 403
655 403
656 403
657 403
658 403
659 403
660 403
661 403
662 403
663 403
664 403
665 403
666 403
667 403
668 403
669 403
670 403
671 403
672 403
673 403
674 403
675 403
676 403
677 403
678 403
679 403
680 403
681 403
682 403
683 403
684 403
685 403
686 403
687 403
688 403
689 403
690 403
691 403
692 403
693 403
618 404
619 404
620 404
621 404
622 404
623 404
624 404
625 404
626 404
627 404
628 404
629 404
630 404
631 404
632 404
633 404
634 404
635 404
636 404
637 404
638 404
639 404
640 404
641 404
642 404
643 404
644 404
645 404
646 404
647 404
648 404
649 404
650 404
651 404
652 404
653 404
654 404
655 404
656 404
657 404
658 404
659 404
660 404
661 404
662 404
663 404
664 404
665 404
666 404
667 404
668 404
669 404
670 404
671 404
672 404
673 404
674 404
675 404
676 404
677 404
678 404
679 404
680 404
681 404
682 404
683 404
684 404
685 404
686 404
687 404
688 404
689 404
690 404
691 404
692 404
693 404
618 405
619 405
620 405
621 405
622 405
623 405
624 405
625 405
626 405
627 405
628 405
629 405
630 405
631 405
632 405
633 405
634 405
635 405
636 405
637 405
638 405
639 405
640 405
641 405
642 405
643 405
644 405
645 405
646 405
647 405
648 405
649 405
650 405
651 405
652 405
653 405
654 405
655 405
656 405
657 405
658 405
659 405
660 405
661 405
662 405
663 405
664 405
665 405
666 405
667 405
668 405
669 405
670 405
671 405
672 405
673 405
674 405
675 405
676 405
677 405
678 405
679 405
680 405
681 405
682 405
683 405
684 405
685 405
686 405
687 405
688 405
689 405
690 405
691 405
692 405
693 405
618 406
619 406
620 406
621 406
622 406
623 406
624 406
625 406
626 406
627 406
628 406
629 406
630 406
631 406
632 406
633 406
634 406
635 406
636 406
637 406
638 406
639 406
640 406
641 406
642 406
643 406
644 406
645 406
646 406
647 406
648 406
649 406
650 406
651 406
652 406
653 406
654 406
655 406
656 406
657 406
658 406
659 406
660 406
661 406
662 406
663 406
664 406
665 406
666 406
667 406
668 406
669 406
670 406
671 406
672 406
673 406
674 406
675 406
676 406
677 406
678 406
679 406
680 406
681 406
682 406
683 406
684 406
685 406
686 406
687 406
688 406
689 406
690 406
691 406
692 406
693 406
618 407
619 407
620 407
621 407
622 407
623 407
624 407
625 407
626 407
627 407
628 407
629 407
630 407
631 407
632 407
633 407
634 407
635 407
636 407
637 407
638 407
639 407
640 407
641 407
642 407
643 407
644 407
645 407
646 407
647 407
648 407
649 407
650 407
651 407
652 407
653 407
654 407
655 407
656 407
657 407
658 407
659 407
660 407
661 407
662 407
663 407
664 407
665 407
666 407
667 407
668 407
669 407
670 407
671 407
672 407
673 407
674 407
675 407
676 407
677 407
678 407
679 407
680 407
681 407
682 407
683 407
684 407
685 407
686 407
687 407
688 407
689 407
690 407
691 407
692 407
693 407
618 408
619 408
620 408
621 408
622 408
623 408
624 408
625 408
626 408
627 408
628 408
629 408
630 408
631 408
632 408
633 408
634 408
635 408
636 408
637 408
638 408
639 408
640 408
641 408
642 408
643 408
644 408
645 408
646 408
647 408
648 408
649 408
650 408
651 408
652 408
653 408
654 408
655 408
656 408
657 408
658 408
659 408
660 408
661 408
662 408
663 408
664 408
665 408
666 408
667 408
668 408
669 408
670 408
671 408
672 408
673 408
674 408
675 408
676 408
677 408
678 408
679 408
680 408
681 408
682 408
683 408
684 408
685 408
686 408
687 408
688 408
689 408
690 408
691 408
692 408
693 408
618 409
619 409
620 409
621 409
622 409
623 409
624 409
625 409
626 409
627 409
628 409
629 409
630 409
631 409
632 409
633 409
634 409
635 409
636 409
637 409
638 409
639 409
640 409
641 409
642 409
643 409
644 409
645 409
646 409
647 409
648 409
649 409
650 409
651 409
652 409
653 409
654 409
655 409
656 409
657 409
658 409
659 409
660 409
661 409
662 409
663 409
664 409
665 409
666 409
667 409
668 409
669 409
670 409
671 409
672 409
673 409
674 409
675 409
676 409
677 409
678 409
679 409
680 409
681 409
682 409
683 409
684 409
685 409
686 409
687 409
688 409
689 409
690 409
691 409
692 409
693 409
618 410
619 410
620 410
621 410
622 410
623 410
624 410
625 410
626 410
627 410
628 410
629 410
630 410
631 410
632 410
633 410
634 410
635 410
636 410
637 410
638 410
639 410
640 410
641 410
642 410
643 410
644 410
645 410
646 410
647 410
648 410
649 410
650 410
651 410
652 410
653 410
654 410
655 410
656 410
657 410
658 410
659 410
660 410
661 410
662 410
663 410
664 410
665 410
666 410
667 410
668 410
669 410
670 410
671 410
672 410
673 410
674 410
675 410
676 410
677 410
678 410
679 410
680 410
681 410
682 410
683 410
684 410
685 410
686 410
687 410
688 410
689 410
690 410
691 410
692 410
693 410
618 411
619 411
620 411
621 411
622 411
623 411
624 411
625 411
626 411
627 411
628 411
629 411
630 411
631 411
632 411
633 411
634 411
635 411
636 411
637 411
638 411
639 411
640 411
641 411
642 411
643 411
644 411
645 411
646 411
647 411
648 411
649 411
650 411
651 411
652 411
653 411
654 411
655 411
656 411
657 411
658 411
659 411
660 411
661 411
662 411
663 411
664 411
665 411
666 411
667 411
668 411
669 411
670 411
671 411
672 411
673 411
674 411
675 411
676 411
677 411
678 411
679 411
680 411
681 411
682 411
683 411
684 411
685 411
686 411
687 411
688 411
689 411
690 411
691 411
692 411
693 411
618 412
619 412
620 412
621 412
622 412
623 412
624 412
625 412
626 412
627 412
628 412
629 412
630 412
631 412
632 412
633 412
634 412
635 412
636 412
637 412
638 412
639 412
640 412
641 412
642 412
643 412
644 412
645 412
646 412
647 412
648 412
649 412
650 412
651 412
652 412
653 412
654 412
655 412
656 412
657 412
658 412
659 412
660 412
661 412
662 412
663 412
664 412
665 412
666 412
667 412
668 412
669 412
670 412
671 412
672 412
673 412
674 412
675 412
676 412
677 412
678 412
679 412
680 412
681 412
682 412
683 412
684 412
685 412
686 412
687 412
688 412
689 412
690 412
691 412
692 412
693 412
618 413
619 413
620 413
621 413
622 413
623 413
624 413
625 413
626 413
627 413
628 413
629 413
630 413
631 413
632 413
633 413
634 413
635 413
636 413
637 413
638 413
639 413
640 413
641 413
642 413
643 413
644 413
645 413
646 413
647 413
648 413
649 413
650 413
651 413
652 413
653 413
654 413
655 413
656 413
657 413
658 413
659 413
660 413
661 413
662 413
663 413
664 413
665 413
666 413
667 413
668 413
669 413
670 413
671 413
672 413
673 413
674 413
675 413
676 413
677 413
678 413
679 413
680 413
681 413
682 413
683 413
684 413
685 413
686 413
687 413
688 413
689 413
690 413
691 413
692 413
693 413
618 414
619 414
620 414
621 414
622 414
623 414
624 414
625 414
626 414
627 414
628 414
629 414
630 414
631 414
632 414
633 414
634 414
635 414
636 414
637 414
638 414
639 414
640 414
641 414
642 414
643 414
644 414
645 414
646 414
647 414
648 414
649 414
650 414
651 414
652 414
653 414
654 414
655 414
656 414
657 414
658 414
659 414
660 414
661 414
662 414
663 414
664 414
665 414
666 414
667 414
668 414
669 414
670 414
671 414
672 414
673 414
674 414
675 414
676 414
677 414
678 414
679 414
680 414
681 414
682 414
683 414
684 414
685 414
686 414
687 414
688 414
689 414
690 414
691 414
692 414
693 414
618 415
619 415
620 415
621 415
622 415
623 415
624 415
625 415
626 415
627 415
628 415
629 415
630 415
631 415
632 415
633 415
634 415
635 415
636 415
637 415
638 415
639 415
640 415
641 415
642 415
643 415
644 415
645 415
646 415
647 415
648 415
649 415
650 415
651 415
652 415
653 415
654 415
655 415
656 415
657 415
658 415
659 415
660 415
661 415
662 415
663 415
664 415
665 415
666 415
667 415
668 415
669 415
670 415
671 415
672 415
673 415
674 415
675 415
676 415
677 415
678 415
679 415
680 415
681 415
682 415
683 415
684 415
685 415
686 415
687 415
688 415
689 415
690 415
691 415
692 415
693 415
618 416
619 416
620 416
621 416
622 416
623 416
624 416
625 416
626 416
627 416
628 416
629 416
630 416
631 416
632 416
633 416
634 416
635 416
636 416
637 416
638 416
639 416
640 416
641 416
642 416
643 416
644 416
645 416
646 416
647 416
648 416
649 416
650 416
651 416
652 416
653 416
654 416
655 416
656 416
657 416
658 416
659 416
660 416
661 416
662 416
663 416
664 416
665 416
666 416
667 416
668 416
669 416
670 416
671 416
672 416
673 416
674 416
675 416
676 416
677 416
678 416
679 416
680 416
681 416
682 416
683 416
684 416
685 416
686 416
687 416
688 416
689 416
690 416
691 416
692 416
693 416
738 454
739 454
740 454
741 454
742 454
743 454
744 454
745 454
746 454
747 454
748 454
749 454
750 454
751 454
752 454
753 454
754 454
755 454
756 454
757 454
758 454
759 454
760 454
761 454
762 454
763 454
764 454
765 454
766 454
767 454
768 454
769 454
770 454
771 454
772 454
773 454
774 454
775 454
776 454
777 454
778 454
779 454
780 454
781 454
782 454
783 454
784 454
785 454
786 454
787 454
788 454
789 454
790 454
791 454
792 454
793 454
794 454
795 454
796 454
797 454
798 454
799 454
800 454
801 454
802 454
803 454
804 454
805 454
806 454
807 454
808 454
809 454
810 454
811 454
812 454
813 454
738 455
739 455
740 455
741 455
742 455
743 455
744 455
745 455
746 455
747 455
748 455
749 455
750 455
751 455
752 455
753 455
754 455
755 455
756 455
757 455
758 455
759 455
760 455
761 455
762 455
763 455
764 455
765 455
766 455
767 455
768 455
769 455
770 455
771 455
772 455
773 455
774 455
775 455
776 455
777 455
778 455
779 455
780 455
781 455
782 455
783 455
784 455
785 455
786 455
787 455
788 455
789 455
790 455
791 455
792 455
793 455
794 455
795 455
796 455
797 455
798 455
799 455
800 455
801 455
802 455
803 455
804 455
805 455
806 455
807 455
808 455
809 455
810 455
811 455
812 455
813 455
738 456
739 456
740 456
741 456
742 456
743 456
744 456
745 456
746 456
747 456
748 456
749 456
750 456
751 456
752 456
753 456
754 456
755 456
756 456
757 456
758 456
759 456
760 456
761 456
762 456
763 456
764 456
765 456
766 456
767 456
768 456
769 456
770 456
771 456
772 456
773 456
774 456
775 456
776 456
777 456
778 456
779 456
780 456
781 456
782 456
783 456
784 456
785 456
786 456
787 456
788 456
789 456
790 456
791 456
792 456
793 456
794 456
795 456
796 456
797 456
798 456
799 456
800 456
801 456
802 456
803 456
804 456
805 456
806 456
807 456
808 456
809 456
810 456
811 456
812 456
813 456
738 457
739 457
740 457
741 457
742 457
743 457
744 457
745 457
746 457
747 457
748 457
749 457
750 457
751 457
752 457
753 457
754 457
755 457
756 457
757 457
758 457
759 457
760 457
761 457
762 457
763 457
764 457
765 457
766 457
767 457
768 457
769 457
770 457
771 457
772 457
773 457
774 457
775 457
776 457
777 457
778 457
779 457
780 457
781 457
782 457
783 457
784 457
785 457
786 457
787 457
788 457
789 457
790 457
791 457
792 457
793 457
794 457
795 457
796 457
797 457
798 457
799 457
800 457
801 457
802 457
803 457
804 457
805 457
806 457
807 457
808 457
809 457
810 457
811 457
812 457
813 457
738 458
739 458
740 458
741 458
742 458
743 458
744 458
745 458
746 458
747 458
748 458
749 458
750 458
751 458
752 458
753 458
754 458
755 458
756 458
757 458
758 458
759 458
760 458
761 458
762 458
763 458
764 458
765 458
766 458
767 458
768 458
769 458
770 458
771 458
772 458
773 458
774 458
775 458
776 458
777 458
778 458
779 458
780 458
781 458
782 458
783 458
784 458
785 458
786 458
787 458
788 458
789 458
790 458
791 458
792 458
793 458
794 458
795 458
796 458
797 458
798 458
799 458
800 458
801 458
802 458
803 458
804 458
805 458
806 458
807 458
808 458
809 458
810 458
811 458
812 458
813 458
738 459
739 459
740 459
741 459
742 459
743 459
744 459
745 459
746 459
747 459
748 459
749 459
750 459
751 459
752 459
753 459
754 459
755 459
756 459
757 459
758 459
759 459
760 459
761 459
762 459
763 459
764 459
765 459
766 459
767 459
768 459
769 459
770 459
771 459
772 459
773 459
774 459
775 459
776 459
777 459
778 459
779 459
780 459
781 459
782 459
783 459
784 459
785 459
786 459
787 459
788 459
789 459
790 459
791 459
792 459
793 459
794 459
795 459
796 459
797 459
798 459
799 459
800 459
801 459
802 459
803 459
804 459
805 459
806 459
807 459
808 459
809 459
810 459
811 459
812 459
813 459
738 460
739 460
740 460
741 460
742 460
743 460
744 460
745 460
746 460
747 460
748 460
749 460
750 460
751 460
752 460
753 460
754 460
755 460
756 460
757 460
758 460
759 460
760 460
761 460
762 460
763 460
764 460
765 460
766 460
767 460
768 460
769 460
770 460
771 460
772 460
773 460
774 460
775 460
776 460
777 460
778 460
779 460
780 460
781 460
782 460
783 460
784 460
785 460
786 460
787 460
788 460
789 460
790 460
791 460
792 460
793 460
794 460
795 460
796 460
797 460
798 460
799 460
800 460
801 460
802 460
803 460
804 460
805 460
806 460
807 460
808 460
809 460
810 460
811 460
812 460
813 460
738 461
739 461
740 461
741 461
742 461
743 461
744 461
745 461
746 461
747 461
748 461
749 461
750 461
751 461
752 461
753 461
754 461
755 461
756 461
757 461
758 461
759 461
760 461
761 461
762 461
763 461
764 461
765 461
766 461
767 461
768 461
769 461
770 461
771 461
772 461
773 461
774 461
775 461
776 461
777 461
778 461
779 461
780 461
781 461
782 461
783 461
784 461
785 461
786 461
787 461
788 461
789 461
790 461
791 461
792 461
793 461
794 461
795 461
796 461
797 461
798 461
799 461
800 461
801 461
802 461
803 461
804 461
805 461
806 461
807 461
808 461
809 461
810 461
811 461
812 461
813 461
738 462
739 462
740 462
741 462
742 462
743 462
744 462
745 462
746 462
747 462
748 462
749 462
750 462
751 462
752 462
753 462
754 462
755 462
756 462
757 462
758 462
759 462
760 462
761 462
762 462
763 462
764 462
765 462
766 462
767 462
768 462
769 462
770 462
771 462
772 462
773 462
774 462
775 462
776 462
777 462
778 462
779 462
780 462
781 462
782 462
783 462
784 462
785 462
786 462
787 462
788 462
789 462
790 462
791 462
792 462
793 462
794 462
795 462
796 462
797 462
798 462
799 462
800 462
801 462
802 462
803 462
804 462
805 462
806 462
807 462
808 462
809 462
810 462
811 462
812 462
813 462
738 463
739 463
740 463
741 463
742 463
743 463
744 463
745 463
746 463
747 463
748 463
749 463
750 463
751 463
752 463
753 463
754 463
755 463
756 463
757 463
758 463
759 463
760 463
761 463
762 463
763 463
764 463
765 463
766 463
767 463
768 463
769 463
770 463
771 463
772 463
773 463
774 463
775 463
776 463
777 463
778 463
779 463
780 463
781 463
782 463
783 463
784 463
785 463
786 463
787 463
788 463
789 463
790 463
791 463
792 463
793 463
794 463
795 463
796 463
797 463
798 463
799 463
800 463
801 463
802 463
803 463
804 463
805 463
806 463
807 463
808 463
809 463
810 463
811 463
812 463
813 463
738 464
739 464
740 464
741 464
742 464
743 464
744 464
745 464
746 464
747 464
748 464
749 464
750 464
751 464
752 464
753 464
754 464
755 464
756 464
757 464
758 464
759 464
760 464
761 464
762 464
763 464
764 464
765 464
766 464
767 464
768 464
769 464
770 464
771 464
772 464
773 464
774 464
775 464
776 464
777 464
778 464
779 464
780 464
781 464
782 464
783 464
784 464
785 464
786 464
787 464
788 464
789 464
790 464
791 464
792 464
793 464
794 464
795 464
796 464
797 464
798 464
799 464
800 464
801 464
802 464
803 464
804 464
805 464
806 464
807 464
808 464
809 464
810 464
811 464
812 464
813 464
738 465
739 465
740 465
741 465
742 465
743 465
744 465
745 465
746 465
747 465
748 465
749 465
750 465
751 465
752 465
753 465
754 465
755 465
756 465
757 465
758 465
759 465
760 465
761 465
762 465
763 465
764 465
765 465
766 465
767 465
768 465
769 465
770 465
771 465
772 465
773 465
774 465
775 465
776 465
777 465
778 465
779 465
780 465
781 465
782 465
783 465
784 465
785 465
786 465
787 465
788 465
789 465
790 465
791 465
792 465
793 465
794 465
795 465
796 465
797 465
798 465
799 465
800 465
801 465
802 465
803 465
804 465
805 465
806 465
807 465
808 465
809 465
810 465
811 465
812 465
813 465
738 466
739 466
740 466
741 466
742 466
743 466
744 466
745 466
746 466
747 466
748 466
749 466
750 466
751 466
752 466
753 466
754 466
755 466
756 466
757 466
758 466
759 466
760 466
761 466
762 466
763 466
764 466
765 466
766 466
767 466
768 466
769 466
770 466
771 466
772 466
773 466
774 466
775 466
776 466
777 466
778 466
779 466
780 466
781 466
782 466
783 466
784 466
785 466
786 466
787 466
788 466
789 466
790 466
791 466
792 466
793 466
794 466
795 466
796 466
797 466
798 466
799 466
800 466
801 466
802 466
803 466
804 466
805 466
806 466
807 466
808 466
809 466
810 466
811 466
812 466
813 466
738 467
739 467
740 467
741 467
742 467
743 467
744 467
745 467
746 467
747 467
748 467
749 467
750 467
751 467
752 467
753 467
754 467
755 467
756 467
757 467
758 467
759 467
760 467
761 467
762 467
763 467
764 467
765 467
766 467
767 467
768 467
769 467
770 467
771 467
772 467
773 467
774 467
775 467
776 467
777 467
778 467
779 467
780 467
781 467
782 467
783 467
784 467
785 467
786 467
787 467
788 467
789 467
790 467
791 467
792 467
793 467
794 467
795 467
796 467
797 467
798 467
799 467
800 467
801 467
802 467
803 467
804 467
805 467
806 467
807 467
808 467
809 467
810 467
811 467
812 467
813 467
738 468
739 468
740 468
741 468
742 468
743 468
744 468
745 468
746 468
747 468
748 468
749 468
750 468
751 468
752 468
753 468
754 468
755 468
756 468
757 468
758 468
759 468
760 468
761 468
762 468
763 468
764 468
765 468
766 468
767 468
768 468
769 468
770 468
771 468
772 468
773 468
774 468
775 468
776 468
777 468
778 468
779 468
780 468
781 468
782 468
783 468
784 468
785 468
786 468
787 468
788 468
789 468
790 468
791 468
792 468
793 468
794 468
795 468
796 468
797 468
798 468
799 468
800 468
801 468
802 468
803 468
804 468
805 468
806 468
807 468
808 468
809 468
810 468
811 468
812 468
813 468
738 469
739 469
740 469
741 469
742 469
743 469
744 469
745 469
746 469
747 469
748 469
749 469
750 469
751 469
752 469
753 469
754 469
755 469
756 469
757 469
758 469
759 469
760 469
761 469
762 469
763 469
764 469
765 469
766 469
767 469
768 469
769 469
770 469
771 469
772 469
773 469
774 469
775 469
776 469
777 469
778 469
779 469
780 469
781 469
782 469
783 469
784 469
785 469
786 469
787 469
788 469
789 469
790 469
791 469
792 469
793 469
794 469
795 469
796 469
797 469
798 469
799 469
800 469
801 469
802 469
803 469
804 469
805 469
806 469
807 469
808 469
809 469
810 469
811 469
812 469
813 469
738 470
739 470
740 470
741 470
742 470
743 470
744 470
745 470
746 470
747 470
748 470
749 470
750 470
751 470
752 470
753 470
754 470
755 470
756 470
757 470
758 470
759 470
760 470
761 470
762 470
763 470
764 470
765 470
766 470
767 470
768 470
769 470
770 470
771 470
772 470
773 470
774 470
775 470
776 470
777 470
778 470
779 470
780 470
781 470
782 470
783 470
784 470
785 470
786 470
787 470
788 470
789 470
790 470
791 470
792 470
793 470
794 470
795 470
796 470
797 470
798 470
799 470
800 470
801 470
802 470
803 470
804 470
805 470
806 470
807 470
808 470
809 470
810 470
811 470
812 470
813 470
738 471
739 471
740 471
741 471
742 471
743 471
744 471
745 471
746 471
747 471
748 471
749 471
750 471
751 471
752 471
753 471
754 471
755 471
756 471
757 471
758 471
759 471
760 471
761 471
762 471
763 471
764 471
765 471
766 471
767 471
768 471
769 471
770 471
771 471
772 471
773 471
774 471
775 471
776 471
777 471
778 471
779 471
780 471
781 471
782 471
783 471
784 471
785 471
786 471
787 471
788 471
789 471
790 471
791 471
792 471
793 471
794 471
795 471
796 471
797 471
798 471
799 471
800 471
801 471
802 471
803 471
804 471
805 471
806 471
807 471
808 471
809 471
810 471
811 471
812 471
813 471
738 472
739 472
740 472
741 472
742 472
743 472
744 472
745 472
746 472
747 472
748 472
749 472
750 472
751 472
752 472
753 472
754 472
755 472
756 472
757 472
758 472
759 472
760 472
761 472
762 472
763 472
764 472
765 472
766 472
767 472
768 472
769 472
770 472
771 472
772 472
773 472
774 472
775 472
776 472
777 472
778 472
779 472
780 472
781 472
782 472
783 472
784 472
785 472
786 472
787 472
788 472
789 472
790 472
791 472
792 472
793 472
794 472
795 472
796 472
797 472
798 472
799 472
800 472
801 472
802 472
803 472
804 472
805 472
806 472
807 472
808 472
809 472
810 472
811 472
812 472
813 472
738 473
739 473
740 473
741 473
742 473
743 473
744 473
745 473
746 473
747 473
748 473
749 473
750 473
751 473
752 473
753 473
754 473
755 473
756 473
757 473
758 473
759 473
760 473
761 473
762 473
763 473
764 473
765 473
766 473
767 473
768 473
769 473
770 473
771 473
772 473
773 473
774 473
775 473
776 473
777 473
778 473
779 473
780 473
781 473
782 473
783 473
784 473
785 473
786 473
787 473
788 473
789 473
790 473
791 473
792 473
793 473
794 473
795 473
796 473
797 473
798 473
799 473
800 473
801 473
802 473
803 473
804 473
805 473
806 473
807 473
808 473
809 473
810 473
811 473
812 473
813 473
738 474
739 474
740 474
741 474
742 474
743 474
744 474
745 474
746 474
747 474
748 474
749 474
750 474
751 474
752 474
753 474
754 474
755 474
756 474
757 474
758 474
759 474
760 474
761 474
762 474
763 474
764 474
765 474
766 474
767 474
768 474
769 474
770 474
771 474
772 474
773 474
774 474
775 474
776 474
777 474
778 474
779 474
780 474
781 474
782 474
783 474
784 474
785 474
786 474
787 474
788 474
789 474
790 474
791 474
792 474
793 474
794 474
795 474
796 474
797 474
798 474
799 474
800 474
801 474
802 474
803 474
804 474
805 474
806 474
807 474
808 474
809 474
810 474
811 474
812 474
813 474
738 475
739 475
740 475
741 475
742 475
743 475
744 475
745 475
746 475
747 475
748 475
749 475
750 475
751 475
752 475
753 475
754 475
755 475
756 475
757 475
758 475
759 475
760 475
761 475
762 475
763 475
764 475
765 475
766 475
767 475
768 475
769 475
770 475
771 475
772 475
773 475
774 475
775 475
776 475
777 475
778 475
779 475
780 475
781 475
782 475
783 475
784 475
785 475
786 475
787 475
788 475
789 475
790 475
791 475
792 475
793 475
794 475
795 475
796 475
797 475
798 475
799 475
800 475
801 475
802 475
803 475
804 475
805 475
806 475
807 475
808 475
809 475
810 475
811 475
812 475
813 475
738 476
739 476
740 476
741 476
742 476
743 476
744 476
745 476
746 476
747 476
748 476
749 476
750 476
751 476
752 476
753 476
754 476
755 476
756 476
757 476
758 476
759 476
760 476
761 476
762 476
763 476
764 476
765 476
766 476
767 476
768 476
769 476
770 476
771 476
772 476
773 476
774 476
775 476
776 476
777 476
778 476
779 476
780 476
781 476
782 476
783 476
784 476
785 476
786 476
787 476
788 476
789 476
790 476
791 476
792 476
793 476
794 476
795 476
796 476
797 476
798 476
799 476
800 476
801 476
802 476
803 476
804 476
805 476
806 476
807 476
808 476
809 476
810 476
811 476
812 476
813 476
738 477
739 477
740 477
741 477
742 477
743 477
744 477
745 477
746 477
747 477
748 477
749 477
750 477
751 477
752 477
753 477
754 477
755 477
756 477
757 477
758 477
759 477
760 477
761 477
762 477
763 477
764 477
765 477
766 477
767 477
768 477
769 477
770 477
771 477
772 477
773 477
774 477
775 477
776 477
777 477
778 477
779 477
780 477
781 477
782 477
783 477
784 477
785 477
786 477
787 477
788 477
789 477
790 477
791 477
792 477
793 477
794 477
795 477
796 477
797 477
798 477
799 477
800 477
801 477
802 477
803 477
804 477
805 477
806 477
807 477
808 477
809 477
810 477
811 477
812 477
813 477
738 478
739 478
740 478
741 478
742 478
743 478
744 478
745 478
746 478
747 478
748 478
749 478
750 478
751 478
752 478
753 478
754 478
755 478
756 478
757 478
758 478
759 478
760 478
761 478
762 478
763 478
764 478
765 478
766 478
767 478
768 478
769 478
770 478
771 478
772 478
773 478
774 478
775 478
776 478
777 478
778 478
779 478
780 478
781 478
782 478
783 478
784 478
785 478
786 478
787 478
788 478
789 478
790 478
791 478
792 478
793 478
794 478
795 478
796 478
797 478
798 478
799 478
800 478
801 478
802 478
803 478
804 478
805 478
806 478
807 478
808 478
809 478
810 478
811 478
812 478
813 478
738 479
739 479
740 479
741 479
742 479
743 479
744 479
745 479
746 479
747 479
748 479
749 479
750 479
751 479
752 479
753 479
754 479
755 479
756 479
757 479
758 479
759 479
760 479
761 479
762 479
763 479
764 479
765 479
766 479
767 479
768 479
769 479
770 479
771 479
772 479
773 479
774 479
775 479
776 479
777 479
778 479
779 479
780 479
781 479
782 479
783 479
784 479
785 479
786 479
787 479
788 479
789 479
790 479
791 479
792 479
793 479
794 479
795 479
796 479
797 479
798 479
799 479
800 479
801 479
802 479
803 479
804 479
805 479
806 479
807 479
808 479
809 479
810 479
811 479
812 479
813 479
738 480
739 480
740 480
741 480
742 480
743 480
744 480
745 480
746 480
747 480
748 480
749 480
750 480
751 480
752 480
753 480
754 480
755 480
756 480
757 480
758 480
759 480
760 480
761 480
762 480
763 480
764 480
765 480
766 480
767 480
768 480
769 480
770 480
771 480
772 480
773 480
774 480
775 480
776 480
777 480
778 480
779 480
780 480
781 480
782 480
783 480
784 480
785 480
786 480
787 480
788 480
789 480
790 480
791 480
792 480
793 480
794 480
795 480
796 480
797 480
798 480
799 480
800 480
801 480
802 480
803 480
804 480
805 480
806 480
807 480
808 480
809 480
810 480
811 480
812 480
813 480
738 481
739 481
740 481
741 481
742 481
743 481
744 481
745 481
746 481
747 481
748 481
749 481
750 481
751 481
752 481
753 481
754 481
755 481
756 481
757 481
758 481
759 481
760 481
761 481
762 481
763 481
764 481
765 481
766 481
767 481
768 481
769 481
770 481
771 481
772 481
773 481
774 481
775 481
776 481
777 481
778 481
779 481
780 481
781 481
782 481
783 481
784 481
785 481
786 481
787 481
788 481
789 481
790 481
791 481
792 481
793 481
794 481
795 481
796 481
797 481
798 481
799 481
800 481
801 481
802 481
803 481
804 481
805 481
806 481
807 481
808 481
809 481
810 481
811 481
812 481
813 481
738 482
739 482
740 482
741 482
742 482
743 482
744 482
745 482
746 482
747 482
748 482
749 482
750 482
751 482
752 482
753 482
754 482
755 482
756 482
757 482
758 482
759 482
760 482
761 482
762 482
763 482
764 482
765 482
766 482
767 482
768 482
769 482
770 482
771 482
772 482
773 482
774 482
775 482
776 482
777 482
778 482
779 482
780 482
781 482
782 482
783 482
784 482
785 482
786 482
787 482
788 482
789 482
790 482
791 482
792 482
793 482
794 482
795 482
796 482
797 482
798 482
799 482
800 482
801 482
802 482
803 482
804 482
805 482
806 482
807 482
808 482
809 482
810 482
811 482
812 482
813 482
738 483
739 483
740 483
741 483
742 483
743 483
744 483
745 483
746 483
747 483
748 483
749 483
750 483
751 483
752 483
753 483
754 483
755 483
756 483
757 483
758 483
759 483
760 483
761 483
762 483
763 483
764 483
765 483
766 483
767 483
768 483
769 483
770 483
771 483
772 483
773 483
774 483
775 483
776 483
777 483
778 483
779 483
780 483
781 483
782 483
783 483
784 483
785 483
786 483
787 483
788 483
789 483
790 483
791 483
792 483
793 483
794 483
795 483
796 483
797 483
798 483
799 483
800 483
801 483
802 483
803 483
804 483
805 483
806 483
807 483
808 483
809 483
810 483
811 483
812 483
813 483
738 484
739 484
740 484
741 484
742 484
743 484
744 484
745 484
746 484
747 484
748 484
749 484
750 484
751 484
752 484
753 484
754 484
755 484
756 484
757 484
758 484
759 484
760 484
761 484
762 484
763 484
764 484
765 484
766 484
767 484
768 484
769 484
770 484
771 484
772 484
773 484
774 484
775 484
776 484
777 484
778 484
779 484
780 484
781 484
782 484
783 484
784 484
785 484
786 484
787 484
788 484
789 484
790 484
791 484
792 484
793 484
794 484
795 484
796 484
797 484
798 484
799 484
800 484
801 484
802 484
803 484
804 484
805 484
806 484
807 484
808 484
809 484
810 484
811 484
812 484
813 484
738 485
739 485
740 485
741 485
742 485
743 485
744 485
745 485
746 485
747 485
748 485
749 485
750 485
751 485
752 485
753 485
754 485
755 485
756 485
757 485
758 485
759 485
760 485
761 485
762 485
763 485
764 485
765 485
766 485
767 485
768 485
769 485
770 485
771 485
772 485
773 485
774 485
775 485
776 485
777 485
778 485
779 485
780 485
781 485
782 485
783 485
784 485
785 485
786 485
787 485
788 485
789 485
790 485
791 485
792 485
793 485
794 485
795 485
796 485
797 485
798 485
799 485
800 485
801 485
802 485
803 485
804 485
805 485
806 485
807 485
808 485
809 485
810 485
811 485
812 485
813 485
738 486
739 486
740 486
741 486
742 486
743 486
744 486
745 486
746 486
747 486
748 486
749 486
750 486
751 486
752 486
753 486
754 486
755 486
756 486
757 486
758 486
759 486
760 486
761 486
762 486
763 486
764 486
765 486
766 486
767 486
768 486
769 486
770 486
771 486
772 486
773 486
774 486
775 486
776 486
777 486
778 486
779 486
780 486
781 486
782 486
783 486
784 486
785 486
786 486
787 486
788 486
789 486
790 486
791 486
792 486
793 486
794 486
795 486
796 486
797 486
798 486
799 486
800 486
801 486
802 486
803 486
804 486
805 486
806 486
807 486
808 486
809 486
810 486
811 486
812 486
813 486
738 487
739 487
740 487
741 487
742 487
743 487
744 487
745 487
746 487
747 487
748 487
749 487
750 487
751 487
752 487
753 487
754 487
755 487
756 487
757 487
758 487
759 487
760 487
761 487
762 487
763 487
764 487
765 487
766 487
767 487
768 487
769 487
770 487
771 487
772 487
773 487
774 487
775 487
776 487
777 487
778 487
779 487
780 487
781 487
782 487
783 487
784 487
785 487
786 487
787 487
788 487
789 487
790 487
791 487
792 487
793 487
794 487
795 487
796 487
797 487
798 487
799 487
800 487
801 487
802 487
803 487
804 487
805 487
806 487
807 487
808 487
809 487
810 487
811 487
812 487
813 487
738 488
739 488
740 488
741 488
742 488
743 488
744 488
745 488
746 488
747 488
748 488
749 488
750 488
751 488
752 488
753 488
754 488
755 488
756 488
757 488
758 488
759 488
760 488
761 488
762 488
763 488
764 488
765 488
766 488
767 488
768 488
769 488
770 488
771 488
772 488
773 488
774 488
775 488
776 488
777 488
778 488
779 488
780 488
781 488
782 488
783 488
784 488
785 488
786 488
787 488
788 488
789 488
790 488
791 488
792 488
793 488
794 488
795 488
796 488
797 488
798 488
799 488
800 488
801 488
802 488
803 488
804 488
805 488
806 488
807 488
808 488
809 488
810 488
811 488
812 488
813 488
738 489
739 489
740 489
741 489
742 489
743 489
744 489
745 489
746 489
747 489
748 489
749 489
750 489
751 489
752 489
753 489
754 489
755 489
756 489
757 489
758 489
759 489
760 489
761 489
762 489
763 489
764 489
765 489
766 489
767 489
768 489
769 489
770 489
771 489
772 489
773 489
774 489
775 489
776 489
777 489
778 489
779 489
780 489
781 489
782 489
783 489
784 489
785 489
786 489
787 489
788 489
789 489
790 489
791 489
792 489
793 489
794 489
795 489
796 489
797 489
798 489
799 489
800 489
801 489
802 489
803 489
804 489
805 489
806 489
807 489
808 489
809 489
810 489
811 489
812 489
813 489
738 490
739 490
740 490
741 490
742 490
743 490
744 490
745 490
746 490
747 490
748 490
749 490
750 490
751 490
752 490
753 490
754 490
755 490
756 490
757 490
758 490
759 490
760 490
761 490
762 490
763 490
764 490
765 490
766 490
767 490
768 490
769 490
770 490
771 490
772 490
773 490
774 490
775 490
776 490
777 490
778 490
779 490
780 490
781 490
782 490
783 490
784 490
785 490
786 490
787 490
788 490
789 490
790 490
791 490
792 490
793 490
794 490
795 490
796 490
797 490
798 490
799 490
800 490
801 490
802 490
803 490
804 490
805 490
806 490
807 490
808 490
809 490
810 490
811 490
812 490
813 490
738 491
739 491
740 491
741 491
742 491
743 491
744 491
745 491
746 491
747 491
748 491
749 491
750 491
751 491
752 491
753 491
754 491
755 491
756 491
757 491
758 491
759 491
760 491
761 491
762 491
763 491
764 491
765 491
766 491
767 491
768 491
769 491
770 491
771 491
772 491
773 491
774 491
775 491
776 491
777 491
778 491
779 491
780 491
781 491
782 491
783 491
784 491
785 491
786 491
787 491
788 491
789 491
790 491
791 491
792 491
793 491
794 491
795 491
796 491
797 491
798 491
799 491
800 491
801 491
802 491
803 491
804 491
805 491
806 491
807 491
808 491
809 491
810 491
811 491
812 491
813 491
738 492
739 492
740 492
741 492
742 492
743 492
744 492
745 492
746 492
747 492
748 492
749 492
750 492
751 492
752 492
753 492
754 492
755 492
756 492
757 492
758 492
759 492
760 492
761 492
762 492
763 492
764 492
765 492
766 492
767 492
768 492
769 492
770 492
771 492
772 492
773 492
774 492
775 492
776 492
777 492
778 492
779 492
780 492
781 492
782 492
783 492
784 492
785 492
786 492
787 492
788 492
789 492
790 492
791 492
792 492
793 492
794 492
795 492
796 492
797 492
798 492
799 492
800 492
801 492
802 492
803 492
804 492
805 492
806 492
807 492
808 492
809 492
810 492
811 492
812 492
813 492
738 493
739 493
740 493
741 493
742 493
743 493
744 493
745 493
746 493
747 493
748 493
749 493
750 493
751 493
752 493
753 493
754 493
755 493
756 493
757 493
758 493
759 493
760 493
761 493
762 493
763 493
764 493
765 493
766 493
767 493
768 493
769 493
770 493
771 493
772 493
773 493
774 493
775 493
776 493
777 493
778 493
779 493
780 493
781 493
782 493
783 493
784 493
785 493
786 493
787 493
788 493
789 493
790 493
791 493
792 493
793 493
794 493
795 493
796 493
797 493
798 493
799 493
800 493
801 493
802 493
803 493
804 493
805 493
806 493
807 493
808 493
809 493
810 493
811 493
812 493
813 493
738 494
739 494
740 494
741 494
742 494
743 494
744 494
745 494
746 494
747 494
748 494
749 494
750 494
751 494
752 494
753 494
754 494
755 494
756 494
757 494
758 494
759 494
760 494
761 494
762 494
763 494
764 494
765 494
766 494
767 494
768 494
769 494
770 494
771 494
772 494
773 494
774 494
775 494
776 494
777 494
778 494
779 494
780 494
781 494
782 494
783 494
784 494
785 494
786 494
787 494
788 494
789 494
790 494
791 494
792 494
793 494
794 494
795 494
796 494
797 494
798 494
799 494
800 494
801 494
802 494
803 494
804 494
805 494
806 494
807 494
808 494
809 494
810 494
811 494
812 494
813 494
738 495
739 495
740 495
741 495
742 495
743 495
744 495
745 495
746 495
747 495
748 495
749 495
750 495
751 495
752 495
753 495
754 495
755 495
756 495
757 495
758 495
759 495
760 495
761 495
762 495
763 495
764 495
765 495
766 495
767 495
768 495
769 495
770 495
771 495
772 495
773 495
774 495
775 495
776 495
777 495
778 495
779 495
780 495
781 495
782 495
783 495
784 495
785 495
786 495
787 495
788 495
789 495
790 495
791 495
792 495
793 495
794 495
795 495
796 495
797 495
798 495
799 495
800 495
801 495
802 495
803 495
804 495
805 495
806 495
807 495
808 495
809 495
810 495
811 495
812 495
813 495
738 496
739 496
740 496
741 496
742 496
743 496
744 496
745 496
746 496
747 496
748 496
749 496
750 496
751 496
752 496
753 496
754 496
755 496
756 496
757 496
758 496
759 496
760 496
761 496
762 496
763 496
764 496
765 496
766 496
767 496
768 496
769 496
770 496
771 496
772 496
773 496
774 496
775 496
776 496
777 496
778 496
779 496
780 496
781 496
782 496
783 496
784 496
785 496
786 496
787 496
788 496
789 496
790 496
791 496
792 496
793 496
794 496
795 496
796 496
797 496
798 496
799 496
800 496
801 496
802 496
803 496
804 496
805 496
806 496
807 496
808 496
809 496
810 496
811 496
812 496
813 496
738 497
739 497
740 497
741 497
742 497
743 497
744 497
745 497
746 497
747 497
748 497
749 497
750 497
751 497
752 497
753 497
754 497
755 497
756 497
757 497
758 497
759 497
760 497
761 497
762 497
763 497
764 497
765 497
766 497
767 497
768 497
769 497
770 497
771 497
772 497
773 497
774 497
775 497
776 497
777 497
778 497
779 497
780 497
781 497
782 497
783 497
784 497
785 497
786 497
787 497
788 497
789 497
790 497
791 497
792 497
793 497
794 497
795 497
796 497
797 497
798 497
799 497
800 497
801 497
802 497
803 497
804 497
805 497
806 497
807 497
808 497
809 497
810 497
811 497
812 497
813 497
858 535
859 535
860 535
861 535
862 535
863 535
864 535
865 535
866 535
867 535
868 535
869 535
870 535
871 535
872 535
873 535
874 535
875 535
876 535
877 535
878 535
879 535
880 535
881 535
882 535
883 535
884 535
885 535
886 535
887 535
888 535
889 535
890 535
891 535
892 535
893 535
894 535
895 535
896 535
897 535
898 535
899 535
900 535
901 535
902 535
903 535
904 535
905 535
906 535
907 535
908 535
909 535
910 535
911 535
912 535
913 535
914 535
915 535
916 535
917 535
918 535
919 535
920 535
921 535
922 535
923 535
924 535
925 535
926 535
927 535
928 535
929 535
930 535
931 535
932 535
933 535
858 536
859 536
860 536
861 536
862 536
863 536
864 536
865 536
866 536
867 536
868 536
869 536
870 536
871 536
872 536
873 536
874 536
875 536
876 536
877 536
878 536
879 536
880 536
881 536
882 536
883 536
884 536
885 536
886 536
887 536
888 536
889 536
890 536
891 536
892 536
893 536
894 536
895 536
896 536
897 536
898 536
899 536
900 536
901 536
902 536
903 536
904 536
905 536
906 536
907 536
908 536
909 536
910 536
911 536
912 536
913 536
914 536
915 536
916 536
917 536
918 536
919 536
920 536
921 536
922 536
923 536
924 536
925 536
926 536
927 536
928 536
929 536
930 536
931 536
932 536
933 536
858 537
859 537
860 537
861 537
862 537
863 537
864 537
865 537
866 537
867 537
868 537
869 537
870 537
871 537
872 537
873 537
874 537
875 537
876 537
877 537
878 537
879 537
880 537
881 537
882 537
883 537
884 537
885 537
886 537
887 537
888 537
889 537
890 537
891 537
892 537
893 537
894 537
895 537
896 537
897 537
898 537
899 537
900 537
901 537
902 537
903 537
904 537
905 537
906 537
907 537
908 537
909 537
910 537
911 537
912 537
913 537
914 537
915 537
916 537
917 537
918 537
919 537
920 537
921 537
922 537
923 537
924 537
925 537
926 537
927 537
928 537
929 537
930 537
931 537
932 537
933 537
858 538
859 538
860 538
861 538
862 538
863 538
864 538
865 538
866 538
867 538
868 538
869 538
870 538
871 538
872 538
873 538
874 538
875 538
876 538
877 538
878 538
879 538
880 538
881 538
882 538
883 538
884 538
885 538
886 538
887 538
888 538
889 538
890 538
891 538
892 538
893 538
894 538
895 538
896 538
897 538
898 538
899 538
900 538
901 538
902 538
903 538
904 538
905 538
906 538
907 538
908 538
909 538
910 538
911 538
912 538
913 538
914 538
915 538
916 538
917 538
918 538
919 538
920 538
921 538
922 538
923 538
924 538
925 538
926 538
927 538
928 538
929 538
930 538
931 538
932 538
933 538
858 539
859 539
860 539
861 539
862 539
863 539
864 539
865 539
866 539
867 539
868 539
869 539
870 539
871 539
872 539
873 539
874 539
875 539
876 539
877 539
878 539
879 539
880 539
881 539
882 539
883 539
884 539
885 539
886 539
887 539
888 539
889 539
890 539
891 539
892 539
893 539
894 539
895 539
896 539
897 539
898 539
899 539
900 539
901 539
902 539
903 539
904 539
905 539
906 539
907 539
908 539
909 539
910 539
911 539
912 539
913 539
914 539
915 539
916 539
917 539
918 539
919 539
920 539
921 539
922 539
923 539
924 539
925 539
926 539
927 539
928 539
929 539
930 539
931 539
932 539
933 539
858 540
859 540
860 540
861 540
862 540
863 540
864 540
865 540
866 540
867 540
868 540
869 540
870 540
871 540
872 540
873 540
874 540
875 540
876 540
877 540
878 540
879 540
880 540
881 540
882 540
883 540
884 540
885 540
886 540
887 540
888 540
889 540
890 540
891 540
892 540
893 540
894 540
895 540
896 540
897 540
898 540
899 540
900 540
901 540
902 540
903 540
904 540
905 540
906 540
907 540
908 540
909 540
910 540
911 540
912 540
913 540
914 540
915 540
916 540
917 540
918 540
919 540
920 540
921 540
922 540
923 540
924 540
925 540
926 540
927 540
928 540
929 540
930 540
931 540
932 540
933 540
858 541
859 541
860 541
861 541
862 541
863 541
864 541
865 541
866 541
867 541
868 541
869 541
870 541
871 541
872 541
873 541
874 541
875 541
876 541
877 541
878 541
879 541
880 541
881 541
882 541
883 541
884 541
885 541
886 541
887 541
888 541
889 541
890 541
891 541
892 541
893 541
894 541
895 541
896 541
897 541
898 541
899 541
900 541
901 541
902 541
903 541
904 541
905 541
906 541
907 541
908 541
909 541
910 541
911 541
912 541
913 541
914 541
915 541
916 541
917 541
918 541
919 541
920 541
921 541
922 541
923 541
924 541
925 541
926 541
927 541
928 541
929 541
930 541
931 541
932 541
933 541
858 542
859 542
860 542
861 542
862 542
863 542
864 542
865 542
866 542
867 542
868 542
869 542
870 542
871 542
872 542
873 542
874 542
875 542
876 542
877 542
878 542
879 542
880 542
881 542
882 542
883 542
884 542
885 542
886 542
887 542
888 542
889 542
890 542
891 542
892 542
893 542
894 542
895 542
896 542
897 542
898 542
899 542
900 542
901 542
902 542
903 542
904 542
905 542
906 542
907 542
908 542
909 542
910 542
911 542
912 542
913 542
914 542
915 542
916 542
917 542
918 542
919 542
920 542
921 542
922 542
923 542
924 542
925 542
926 542
927 542
928 542
929 542
930 542
931 542
932 542
933 542
858 543
859 543
860 543
861 543
862 543
863 543
864 543
865 543
866 543
867 543
868 543
869 543
870 543
871 543
872 543
873 543
874 543
875 543
876 543
877 543
878 543
879 543
880 543
881 543
882 543
883 543
884 543
885 543
886 543
887 543
888 543
889 543
890 543
891 543
892 543
893 543
894 543
895 543
896 543
897 543
898 543
899 543
900 543
901 543
902 543
903 543
904 543
905 543
906 543
907 543
908 543
909 543
910 543
911 543
912 543
913 543
914 543
915 543
916 543
917 543
918 543
919 543
920 543
921 543
922 543
923 543
924 543
925 543
926 543
927 543
928 543
929 543
930 543
931 543
932 543
933 543
858 544
859 544
860 544
861 544
862 544
863 544
864 544
865 544
866 544
867 544
868 544
869 544
870 544
871 544
872 544
873 544
874 544
875 544
876 544
877 544
878 544
879 544
880 544
881 544
882 544
883 544
884 544
885 544
886 544
887 544
888 544
889 544
890 544
891 544
892 544
893 544
894 544
895 544
896 544
897 544
898 544
899 544
900 544
901 544
902 544
903 544
904 544
905 544
906 544
907 544
908 544
909 544
910 544
911 544
912 544
913 544
914 544
915 544
916 544
917 544
918 544
919 544
920 544
921 544
922 544
923 544
924 544
925 544
926 544
927 544
928 544
929 544
930 544
931 544
932 544
933 544
858 545
859 545
860 545
861 545
862 545
863 545
864 545
865 545
866 545
867 545
868 545
869 545
870 545
871 545
872 545
873 545
874 545
875 545
876 545
877 545
878 545
879 545
880 545
881 545
882 545
883 545
884 545
885 545
886 545
887 545
888 545
889 545
890 545
891 545
892 545
893 545
894 545
895 545
896 545
897 545
898 545
899 545
900 545
901 545
902 545
903 545
904 545
905 545
906 545
907 545
908 545
909 545
910 545
911 545
912 545
913 545
914 545
915 545
916 545
917 545
918 545
919 545
920 545
921 545
922 545
923 545
924 545
925 545
926 545
927 545
928 545
929 545
930 545
931 545
932 545
933 545
858 546
859 546
860 546
861 546
862 546
863 546
864 546
865 546
866 546
867 546
868 546
869 546
870 546
871 546
872 546
873 546
874 546
875 546
876 546
877 546
878 546
879 546
880 546
881 546
882 546
883 546
884 546
885 546
886 546
887 546
888 546
889 546
890 546
891 546
892 546
893 546
894 546
895 546
896 546
897 546
898 546
899 546
900 546
901 546
902 546
903 546
904 546
905 546
906 546
907 546
908 546
909 546
910 546
911 546
912 546
913 546
914 546
915 546
916 546
917 546
918 546
919 546
920 546
921 546
922 546
923 546
924 546
925 546
926 546
927 546
928 546
929 546
930 546
931 546
932 546
933 546
858 547
859 547
860 547
861 547
862 547
863 547
864 547
865 547
866 547
867 547
868 547
869 547
870 547
871 547
872 547
873 547
874 547
875 547
876 547
877 547
878 547
879 547
880 547
881 547
882 547
883 547
884 547
885 547
886 547
887 547
888 547
889 547
890 547
891 547
892 547
893 547
894 547
895 547
896 547
897 547
898 547
899 547
900 547
901 547
902 547
903 547
904 547
905 547
906 547
907 547
908 547
909 547
910 547
911 547
912 547
913 547
914 547
915 547
916 547
917 547
918 547
919 547
920 547
921 547
922 547
923 547
924 547
925 547
926 547
927 547
928 547
929 547
930 547
931 547
932 547
933 547
858 548
859 548
860 548
861 548
862 548
863 548
864 548
865 548
866 548
867 548
868 548
869 548
870 548
871 548
872 548
873 548
874 548
875 548
876 548
877 548
878 548
879 548
880 548
881 548
882 548
883 548
884 548
885 548
886 548
887 548
888 548
889 548
890 548
891 548
892 548
893 548
894 548
895 548
896 548
897 548
898 548
899 548
900 548
901 548
902 548
903 548
904 548
905 548
906 548
907 548
908 548
909 548
910 548
911 548
912 548
913 548
914 548
915 548
916 548
917 548
918 548
919 548
920 548
921 548
922 548
923 548
924 548
925 548
926 548
927 548
928 548
929 548
930 548
931 548
932 548
933 548
858 549
859 549
860 549
861 549
862 549
863 549
864 549
865 549
866 549
867 549
868 549
869 549
870 549
871 549
872 549
873 549
874 549
875 549
876 549
877 549
878 549
879 549
880 549
881 549
882 549
883 549
884 549
885 549
886 549
887 549
888 549
889 549
890 549
891 549
892 549
893 549
894 549
895 549
896 549
897 549
898 549
899 549
900 549
901 549
902 549
903 549
904 549
905 549
906 549
907 549
908 549
909 549
910 549
911 549
912 549
913 549
914 549
915 549
916 549
917 549
918 549
919 549
920 549
921 549
922 549
923 549
924 549
925 549
926 549
927 549
928 549
929 549
930 549
931 549
932 549
933 549
858 550
859 550
860 550
861 550
862 550
863 550
864 550
865 550
866 550
867 550
868 550
869 550
870 550
871 550
872 550
873 550
874 550
875 550
876 550
877 550
878 550
879 550
880 550
881 550
882 550
883 550
884 550
885 550
886 550
887 550
888 550
889 550
890 550
891 550
892 550
893 550
894 550
895 550
896 550
897 550
898 550
899 550
900 550
901 550
902 550
903 550
904 550
905 550
906 550
907 550
908 550
909 550
910 550
911 550
912 550
913 550
914 550
915 550
916 550
917 550
918 550
919 550
920 550
921 550
922 550
923 550
924 550
925 550
926 550
927 550
928 550
929 550
930 550
931 550
932 550
933 550
858 551
859 551
860 551
861 551
862 551
863 551
864 551
865 551
866 551
867 551
868 551
869 551
870 551
871 551
872 551
873 551
874 551
875 551
876 551
877 551
878 551
879 551
880 551
881 551
882 551
883 551
884 551
885 551
886 551
887 551
888 551
889 551
890 551
891 551
892 551
893 551
894 551
895 551
896 551
897 551
898 551
899 551
900 551
901 551
902 551
903 551
904 551
905 551
906 551
907 551
908 551
909 551
910 551
911 551
912 551
913 551
914 551
915 551
916 551
917 551
918 551
919 551
920 551
921 551
922 551
923 551
924 551
925 551
926 551
927 551
928 551
929 551
930 551
931 551
932 551
933 551
858 552
859 552
860 552
861 552
862 552
863 552
864 552
865 552
866 552
867 552
868 552
869 552
870 552
871 552
872 552
873 552
874 552
875 552
876 552
877 552
878 552
879 552
880 552
881 552
882 552
883 552
884 552
885 552
886 552
887 552
888 552
889 552
890 552
891 552
892 552
893 552
894 552
895 552
896 552
897 552
898 552
899 552
900 552
901 552
902 552
903 552
904 552
905 552
906 552
907 552
908 552
909 552
910 552
911 552
912 552
913 552
914 552
915 552
916 552
917 552
918 552
919 552
920 552
921 552
922 552
923 552
924 552
925 552
926 552
927 552
928 552
929 552
930 552
931 552
932 552
933 552
858 553
859 553
860 553
861 553
862 553
863 553
864 553
865 553
866 553
867 553
868 553
869 553
870 553
871 553
872 553
873 553
874 553
875 553
876 553
877 553
878 553
879 553
880 553
881 553
882 553
883 553
884 553
885 553
886 553
887 553
888 553
889 553
890 553
891 553
892 553
893 553
894 553
895 553
896 553
897 553
898 553
899 553
900 553
901 553
902 553
903 553
904 553
905 553
906 553
907 553
908 553
909 553
910 553
911 553
912 553
913 553
914 553
915 553
916 553
917 553
918 553
919 553
920 553
921 553
922 553
923 553
924 553
925 553
926 553
927 553
928 553
929 553
930 553
931 553
932 553
933 553
858 554
859 554
860 554
861 554
862 554
863 554
864 554
865 554
866 554
867 554
868 554
869 554
870 554
871 554
872 554
873 554
874 554
875 554
876 554
877 554
878 554
879 554
880 554
881 554
882 554
883 554
884 554
885 554
886 554
887 554
888 554
889 554
890 554
891 554
892 554
893 554
894 554
895 554
896 554
897 554
898 554
899 554
900 554
901 554
902 554
903 554
904 554
905 554
906 554
907 554
908 554
909 554
910 554
911 554
912 554
913 554
914 554
915 554
916 554
917 554
918 554
919 554
920 554
921 554
922 554
923 554
924 554
925 554
926 554
927 554
928 554
929 554
930 554
931 554
932 554
933 554
858 555
859 555
860 555
861 555
862 555
863 555
864 555
865 555
866 555
867 555
868 555
869 555
870 555
871 555
872 555
873 555
874 555
875 555
876 555
877 555
878 555
879 555
880 555
881 555
882 555
883 555
884 555
885 555
886 555
887 555
888 555
889 555
890 555
891 555
892 555
893 555
894 555
895 555
896 555
897 555
898 555
899 555
900 555
901 555
902 555
903 555
904 555
905 555
906 555
907 555
908 555
909 555
910 555
911 555
912 555
913 555
914 555
915 555
916 555
917 555
918 555
919 555
920 555
921 555
922 555
923 555
924 555
925 555
926 555
927 555
928 555
929 555
930 555
931 555
932 555
933 555
858 556
859 556
860 556
861 556
862 556
863 556
864 556
865 556
866 556
867 556
868 556
869 556
870 556
871 556
872 556
873 556
874 556
875 556
876 556
877 556
878 556
879 556
880 556
881 556
882 556
883 556
884 556
885 556
886 556
887 556
888 556
889 556
890 556
891 556
892 556
893 556
894 556
895 556
896 556
897 556
898 556
899 556
900 556
901 556
902 556
903 556
904 556
905 556
906 556
907 556
908 556
909 556
910 556
911 556
912 556
913 556
914 556
915 556
916 556
917 556
918 556
919 556
920 556
921 556
922 556
923 556
924 556
925 556
926 556
927 556
928 556
929 556
930 556
931 556
932 556
933 556
858 557
859 557
860 557
861 557
862 557
863 557
864 557
865 557
866 557
867 557
868 557
869 557
870 557
871 557
872 557
873 557
874 557
875 557
876 557
877 557
878 557
879 557
880 557
881 557
882 557
883 557
884 557
885 557
886 557
887 557
888 557
889 557
890 557
891 557
892 557
893 557
894 557
895 557
896 557
897 557
898 557
899 557
900 557
901 557
902 557
903 557
904 557
905 557
906 557
907 557
908 557
909 557
910 557
911 557
912 557
913 557
914 557
915 557
916 557
917 557
918 557
919 557
920 557
921 557
922 557
923 557
924 557
925 557
926 557
927 557
928 557
929 557
930 557
931 557
932 557
933 557
858 558
859 558
860 558
861 558
862 558
863 558
864 558
865 558
866 558
867 558
868 558
869 558
870 558
871 558
872 558
873 558
874 558
875 558
876 558
877 558
878 558
879 558
880 558
881 558
882 558
883 558
884 558
885 558
886 558
887 558
888 558
889 558
890 558
891 558
892 558
893 558
894 558
895 558
896 558
897 558
898 558
899 558
900 558
901 558
902 558
903 558
904 558
905 558
906 558
907 558
908 558
909 558
910 558
911 558
912 558
913 558
914 558
915 558
916 558
917 558
918 558
919 558
920 558
921 558
922 558
923 558
924 558
925 558
926 558
927 558
928 558
929 558
930 558
931 558
932 558
933 558
858 559
859 559
860 559
861 559
862 559
863 559
864 559
865 559
866 559
867 559
868 559
869 559
870 559
871 559
872 559
873 559
874 559
875 559
876 559
877 559
878 559
879 559
880 559
881 559
882 559
883 559
884 559
885 559
886 559
887 559
888 559
889 559
890 559
891 559
892 559
893 559
894 559
895 559
896 559
897 559
898 559
899 559
900 559
901 559
902 559
903 559
904 559
905 559
906 559
907 559
908 559
909 559
910 559
911 559
912 559
913 559
914 559
915 559
916 559
917 559
918 559
919 559
920 559
921 559
922 559
923 559
924 559
925 559
926 559
927 559
928 559
929 559
930 559
931 559
932 559
933 559
858 560
859 560
860 560
861 560
862 560
863 560
864 560
865 560
866 560
867 560
868 560
869 560
870 560
871 560
872 560
873 560
874 560
875 560
876 560
877 560
878 560
879 560
880 560
881 560
882 560
883 560
884 560
885 560
886 560
887 560
888 560
889 560
890 560
891 560
892 560
893 560
894 560
895 560
896 560
897 560
898 560
899 560
900 560
901 560
902 560
903 560
904 560
905 560
906 560
907 560
908 560
909 560
910 560
911 560
912 560
913 560
914 560
915 560
916 560
917 560
918 560
919 560
920 560
921 560
922 560
923 560
924 560
925 560
926 560
927 560
928 560
929 560
930 560
931 560
932 560
933 560
858 561
859 561
860 561
861 561
862 561
863 561
864 561
865 561
866 561
867 561
868 561
869 561
870 561
871 561
872 561
873 561
874 561
875 561
876 561
877 561
878 561
879 561
880 561
881 561
882 561
883 561
884 561
885 561
886 561
887 561
888 561
889 561
890 561
891 561
892 561
893 561
894 561
895 561
896 561
897 561
898 561
899 561
900 561
901 561
902 561
903 561
904 561
905 561
906 561
907 561
908 561
909 561
910 561
911 561
912 561
913 561
914 561
915 561
916 561
917 561
918 561
919 561
920 561
921 561
922 561
923 561
924 561
925 561
926 561
927 561
928 561
929 561
930 561
931 561
932 561
933 561
858 562
859 562
860 562
861 562
862 562
863 562
864 562
865 562
866 562
867 562
868 562
869 562
870 562
871 562
872 562
873 562
874 562
875 562
876 562
877 562
878 562
879 562
880 562
881 562
882 562
883 562
884 562
885 562
886 562
887 562
888 562
889 562
890 562
891 562
892 562
893 562
894 562
895 562
896 562
897 562
898 562
899 562
900 562
901 562
902 562
903 562
904 562
905 562
906 562
907 562
908 562
909 562
910 562
911 562
912 562
913 562
914 562
915 562
916 562
917 562
918 562
919 562
920 562
921 562
922 562
923 562
924 562
925 562
926 562
927 562
928 562
929 562
930 562
931 562
932 562
933 562
858 563
859 563
860 563
861 563
862 563
863 563
864 563
865 563
866 563
867 563
868 563
869 563
870 563
871 563
872 563
873 563
874 563
875 563
876 563
877 563
878 563
879 563
880 563
881 563
882 563
883 563
884 563
885 563
886 563
887 563
888 563
889 563
890 563
891 563
892 563
893 563
894 563
895 563
896 563
897 563
898 563
899 563
900 563
901 563
902 563
903 563
904 563
905 563
906 563
907 563
908 563
909 563
910 563
911 563
912 563
913 563
914 563
915 563
916 563
917 563
918 563
919 563
920 563
921 563
922 563
923 563
924 563
925 563
926 563
927 563
928 563
929 563
930 563
931 563
932 563
933 563
858 564
859 564
860 564
861 564
862 564
863 564
864 564
865 564
866 564
867 564
868 564
869 564
870 564
871 564
872 564
873 564
874 564
875 564
876 564
877 564
878 564
879 564
880 564
881 564
882 564
883 564
884 564
885 564
886 564
887 564
888 564
889 564
890 564
891 564
892 564
893 564
894 564
895 564
896 564
897 564
898 564
899 564
900 564
901 564
902 564
903 564
904 564
905 564
906 564
907 564
908 564
909 564
910 564
911 564
912 564
913 564
914 564
915 564
916 564
917 564
918 564
919 564
920 564
921 564
922 564
923 564
924 564
925 564
926 564
927 564
928 564
929 564
930 564
931 564
932 564
933 564
858 565
859 565
860 565
861 565
862 565
863 565
864 565
865 565
866 565
867 565
868 565
869 565
870 565
871 565
872 565
873 565
874 565
875 565
876 565
877 565
878 565
879 565
880 565
881 565
882 565
883 565
884 565
885 565
886 565
887 565
888 565
889 565
890 565
891 565
892 565
893 565
894 565
895 565
896 565
897 565
898 565
899 565
900 565
901 565
902 565
903 565
904 565
905 565
906 565
907 565
908 565
909 565
910 565
911 565
912 565
913 565
914 565
915 565
916 565
917 565
918 565
919 565
920 565
921 565
922 565
923 565
924 565
925 565
926 565
927 565
928 565
929 565
930 565
931 565
932 565
933 565
858 566
859 566
860 566
861 566
862 566
863 566
864 566
865 566
866 566
867 566
868 566
869 566
870 566
871 566
872 566
873 566
874 566
875 566
876 566
877 566
878 566
879 566
880 566
881 566
882 566
883 566
884 566
885 566
886 566
887 566
888 566
889 566
890 566
891 566
892 566
893 566
894 566
895 566
896 566
897 566
898 566
899 566
900 566
901 566
902 566
903 566
904 566
905 566
906 566
907 566
908 566
909 566
910 566
911 566
912 566
913 566
914 566
915 566
916 566
917 566
918 566
919 566
920 566
921 566
922 566
923 566
924 566
925 566
926 566
927 566
928 566
929 566
930 566
931 566
932 566
933 566
858 567
859 567
860 567
861 567
862 567
863 567
864 567
865 567
866 567
867 567
868 567
869 567
870 567
871 567
872 567
873 567
874 567
875 567
876 567
877 567
878 567
879 567
880 567
881 567
882 567
883 567
884 567
885 567
886 567
887 567
888 567
889 567
890 567
891 567
892 567
893 567
894 567
895 567
896 567
897 567
898 567
899 567
900 567
901 567
902 567
903 567
904 567
905 567
906 567
907 567
908 567
909 567
910 567
911 567
912 567
913 567
914 567
915 567
916 567
917 567
918 567
919 567
920 567
921 567
922 567
923 567
924 567
925 567
926 567
927 567
928 567
929 567
930 567
931 567
932 567
933 567
858 568
859 568
860 568
861 568
862 568
863 568
864 568
865 568
866 568
867 568
868 568
869 568
870 568
871 568
872 568
873 568
874 568
875 568
876 568
877 568
878 568
879 568
880 568
881 568
882 568
883 568
884 568
885 568
886 568
887 568
888 568
889 568
890 568
891 568
892 568
893 568
894 568
895 568
896 568
897 568
898 568
899 568
900 568
901 568
902 568
903 568
904 568
905 568
906 568
907 568
908 568
909 568
910 568
911 568
912 568
913 568
914 568
915 568
916 568
917 568
918 568
919 568
920 568
921 568
922 568
923 568
924 568
925 568
926 568
927 568
928 568
929 568
930 568
931 568
932 568
933 568
858 569
859 569
860 569
861 569
862 569
863 569
864 569
865 569
866 569
867 569
868 569
869 569
870 569
871 569
872 569
873 569
874 569
875 569
876 569
877 569
878 569
879 569
880 569
881 569
882 569
883 569
884 569
885 569
886 569
887 569
888 569
889 569
890 569
891 569
892 569
893 569
894 569
895 569
896 569
897 569
898 569
899 569
900 569
901 569
902 569
903 569
904 569
905 569
906 569
907 569
908 569
909 569
910 569
911 569
912 569
913 569
914 569
915 569
916 569
917 569
918 569
919 569
920 569
921 569
922 569
923 569
924 569
925 569
926 569
927 569
928 569
929 569
930 569
931 569
932 569
933 569
858 570
859 570
860 570
861 570
862 570
863 570
864 570
865 570
866 570
867 570
868 570
869 570
870 570
871 570
872 570
873 570
874 570
875 570
876 570
877 570
878 570
879 570
880 570
881 570
882 570
883 570
884 570
885 570
886 570
887 570
888 570
889 570
890 570
891 570
892 570
893 570
894 570
895 570
896 570
897 570
898 570
899 570
900 570
901 570
902 570
903 570
904 570
905 570
906 570
907 570
908 570
909 570
910 570
911 570
912 570
913 570
914 570
915 570
916 570
917 570
918 570
919 570
920 570
921 570
922 570
923 570
924 570
925 570
926 570
927 570
928 570
929 570
930 570
931 570
932 570
933 570
858 571
859 571
860 571
861 571
862 571
863 571
864 571
865 571
866 571
867 571
868 571
869 571
870 571
871 571
872 571
873 571
874 571
875 571
876 571
877 571
878 571
879 571
880 571
881 571
882 571
883 571
884 571
885 571
886 571
887 571
888 571
889 571
890 571
891 571
892 571
893 571
894 571
895 571
896 571
897 571
898 571
899 571
900 571
901 571
902 571
903 571
904 571
905 571
906 571
907 571
908 571
909 571
910 571
911 571
912 571
913 571
914 571
915 571
916 571
917 571
918 571
919 571
920 571
921 571
922 571
923 571
924 571
925 571
926 571
927 571
928 571
929 571
930 571
931 571
932 571
933 571
858 572
859 572
860 572
861 572
862 572
863 572
864 572
865 572
866 572
867 572
868 572
869 572
870 572
871 572
872 572
873 572
874 572
875 572
876 572
877 572
878 572
879 572
880 572
881 572
882 572
883 572
884 572
885 572
886 572
887 572
888 572
889 572
890 572
891 572
892 572
893 572
894 572
895 572
896 572
897 572
898 572
899 572
900 572
901 572
902 572
903 572
904 572
905 572
906 572
907 572
908 572
909 572
910 572
911 572
912 572
913 572
914 572
915 572
916 572
917 572
918 572
919 572
920 572
921 572
922 572
923 572
924 572
925 572
926 572
927 572
928 572
929 572
930 572
931 572
932 572
933 572
858 573
859 573
860 573
861 573
862 573
863 573
864 573
865 573
866 573
867 573
868 573
869 573
870 573
871 573
872 573
873 573
874 573
875 573
876 573
877 573
878 573
879 573
880 573
881 573
882 573
883 573
884 573
885 573
886 573
887 573
888 573
889 573
890 573
891 573
892 573
893 573
894 573
895 573
896 573
897 573
898 573
899 573
900 573
901 573
902 573
903 573
904 573
905 573
906 573
907 573
908 573
909 573
910 573
911 573
912 573
913 573
914 573
915 573
916 573
917 573
918 573
919 573
920 573
921 573
922 573
923 573
924 573
925 573
926 573
927 573
928 573
929 573
930 573
931 573
932 573
933 573
858 574
859 574
860 574
861 574
862 574
863 574
864 574
865 574
866 574
867 574
868 574
869 574
870 574
871 574
872 574
873 574
874 574
875 574
876 574
877 574
878 574
879 574
880 574
881 574
882 574
883 574
884 574
885 574
886 574
887 574
888 574
889 574
890 574
891 574
892 574
893 574
894 574
895 574
896 574
897 574
898 574
899 574
900 574
901 574
902 574
903 574
904 574
905 574
906 574
907 574
908 574
909 574
910 574
911 574
912 574
913 574
914 574
915 574
916 574
917 574
918 574
919 574
920 574
921 574
922 574
923 574
924 574
925 574
926 574
927 574
928 574
929 574
930 574
931 574
932 574
933 574
858 575
859 575
860 575
861 575
862 575
863 575
864 575
865 575
866 575
867 575
868 575
869 575
870 575
871 575
872 575
873 575
874 575
875 575
876 575
877 575
878 575
879 575
880 575
881 575
882 575
883 575
884 575
885 575
886 575
887 575
888 575
889 575
890 575
891 575
892 575
893 575
894 575
895 575
896 575
897 575
898 575
899 575
900 575
901 575
902 575
903 575
904 575
905 575
906 575
907 575
908 575
909 575
910 575
911 575
912 575
913 575
914 575
915 575
916 575
917 575
918 575
919 575
920 575
921 575
922 575
923 575
924 575
925 575
926 575
927 575
928 575
929 575
930 575
931 575
932 575
933 575
858 576
859 576
860 576
861 576
862 576
863 576
864 576
865 576
866 576
867 576
868 576
869 576
870 576
871 576
872 576
873 576
874 576
875 576
876 576
877 576
878 576
879 576
880 576
881 576
882 576
883 576
884 576
885 576
886 576
887 576
888 576
889 576
890 576
891 576
892 576
893 576
894 576
895 576
896 576
897 576
898 576
899 576
900 576
901 576
902 576
903 576
904 576
905 576
906 576
907 576
908 576
909 576
910 576
911 576
912 576
913 576
914 576
915 576
916 576
917 576
918 576
919 576
920 576
921 576
922 576
923 576
924 576
925 576
926 576
927 576
928 576
929 576
930 576
931 576
932 576
933 576
858 577
859 577
860 577
861 577
862 577
863 577
864 577
865 577
866 577
867 577
868 577
869 577
870 577
871 577
872 577
873 577
874 577
875 577
876 577
877 577
878 577
879 577
880 577
881 577
882 577
883 577
884 577
885 577
886 577
887 577
888 577
889 577
890 577
891 577
892 577
893 577
894 577
895 577
896 577
897 577
898 577
899 577
900 577
901 577
902 577
903 577
904 577
905 577
906 577
907 577
908 577
909 577
910 577
911 577
912 577
913 577
914 577
915 577
916 577
917 577
918 577
919 577
920 577
921 577
922 577
923 577
924 577
925 577
926 577
927 577
928 577
929 577
930 577
931 577
932 577
933 577
858 578
859 578
860 578
861 578
862 578
863 578
864 578
865 578
866 578
867 578
868 578
869 578
870 578
871 578
872 578
873 578
874 578
875 578
876 578
877 578
878 578
879 578
880 578
881 578
882 578
883 578
884 578
885 578
886 578
887 578
888 578
889 578
890 578
891 578
892 578
893 578
894 578
895 578
896 578
897 578
898 578
899 578
900 578
901 578
902 578
903 578
904 578
905 578
906 578
907 578
908 578
909 578
910 578
911 578
912 578
913 578
914 578
915 578
916 578
917 578
918 578
919 578
920 578
921 578
922 578
923 578
924 578
925 578
926 578
927 578
928 578
929 578
930 578
931 578
932 578
933 578
978 616
979 616
980 616
981 616
982 616
983 616
984 616
985 616
986 616
987 616
988 616
989 616
990 616
991 616
992 616
993 616
994 616
995 616
996 616
997 616
998 616
999 616
1000 616
1001 616
1002 616
1003 616
1004 616
1005 616
1006 616
1007 616
1008 616
1009 616
1010 616
1011 616
1012 616
1013 616
1014 616
1015 616
1016 616
1017 616
1018 616
1019 616
1020 616
1021 616
1022 616
1023 616
1024 616
1025 616
1026 616
1027 616
1028 616
1029 616
1030 616
1031 616
1032 616
1033 616
1034 616
1035 616
1036 616
1037 616
1038 616
1039 616
1040 616
1041 616
1042 616
1043 616
1044 616
1045 616
1046 616
1047 616
1048 616
1049 616
1050 616
1051 616
1052 616
1053 616
978 617
979 617
980 617
981 617
982 617
983 617
984 617
985 617
986 617
987 617
988 617
989 617
990 617
991 617
992 617
993 617
994 617
995 617
996 617
997 617
998 617
999 617
1000 617
1001 617
1002 617
1003 617
1004 617
1005 617
1006 617
1007 617
1008 617
1009 617
1010 617
1011 617
1012 617
1013 617
1014 617
1015 617
1016 617
1017 617
1018 617
1019 617
1020 617
1021 617
1022 617
1023 617
1024 617
1025 617
1026 617
1027 617
1028 617
1029 617
1030 617
1031 617
1032 617
1033 617
1034 617
1035 617
1036 617
1037 617
1038 617
1039 617
1040 617
1041 617
1042 617
1043 617
1044 617
1045 617
1046 617
1047 617
1048 617
1049 617
1050 617
1051 617
1052 617
1053 617
978 618
979 618
980 618
981 618
982 618
983 618
984 618
985 618
986 618
987 618
988 618
989 618
990 618
991 618
992 618
993 618
994 618
995 618
996 618
997 618
998 618
999 618
1000 618
1001 618
1002 618
1003 618
1004 618
1005 618
1006 618
1007 618
1008 618
1009 618
1010 618
1011 618
1012 618
1013 618
1014 618
1015 618
1016 618
1017 618
1018 618
1019 618
1020 618
1021 618
1022 618
1023 618
1024 618
1025 618
1026 618
1027 618
1028 618
1029 618
1030 618
1031 618
1032 618
1033 618
1034 618
1035 618
1036 618
1037 618
1038 618
1039 618
1040 618
1041 618
1042 618
1043 618
1044 618
1045 618
1046 618
1047 618
1048 618
1049 618
1050 618
1051 618
1052 618
1053 618
978 619
979 619
980 619
981 619
982 619
983 619
984 619
985 619
986 619
987 619
988 619
989 619
990 619
991 619
992 619
993 619
994 619
995 619
996 619
997 619
998 619
999 619
1000 619
1001 619
1002 619
1003 619
1004 619
1005 619
1006 619
1007 619
1008 619
1009 619
1010 619
1011 619
1012 619
1013 619
1014 619
1015 619
1016 619
1017 619
1018 619
1019 619
1020 619
1021 619
1022 619
1023 619
1024 619
1025 619
1026 619
1027 619
1028 619
1029 619
1030 619
1031 619
1032 619
1033 619
1034 619
1035 619
1036 619
1037 619
1038 619
1039 619
1040 619
1041 619
1042 619
1043 619
1044 619
1045 619
1046 619
1047 619
1048 619
1049 619
1050 619
1051 619
1052 619
1053 619
978 620
979 620
980 620
981 620
982 620
983 620
984 620
985 620
986 620
987 620
988 620
989 620
990 620
991 620
992 620
993 620
994 620
995 620
996 620
997 620
998 620
999 620
1000 620
1001 620
1002 620
1003 620
1004 620
1005 620
1006 620
1007 620
1008 620
1009 620
1010 620
1011 620
1012 620
1013 620
1014 620
1015 620
1016 620
1017 620
1018 620
1019 620
1020 620
1021 620
1022 620
1023 620
1024 620
1025 620
1026 620
1027 620
1028 620
1029 620
1030 620
1031 620
1032 620
1033 620
1034 620
1035 620
1036 620
1037 620
1038 620
1039 620
1040 620
1041 620
1042 620
1043 620
1044 620
1045 620
1046 620
1047 620
1048 620
1049 620
1050 620
1051 620
1052 620
1053 620
978 621
979 621
980 621
981 621
982 621
983 621
984 621
985 621
986 621
987 621
988 621
989 621
990 621
991 621
992 621
993 621
994 621
995 621
996 621
997 621
998 621
999 621
1000 621
1001 621
1002 621
1003 621
1004 621
1005 621
1006 621
1007 621
1008 621
1009 621
1010 621
1011 621
1012 621
1013 621
1014 621
1015 621
1016 621
1017 621
1018 621
1019 621
1020 621
1021 621
1022 621
1023 621
1024 621
1025 621
1026 621
1027 621
1028 621
1029 621
1030 621
1031 621
1032 621
1033 621
1034 621
1035 621
1036 621
1037 621
1038 621
1039 621
1040 621
1041 621
1042 621
1043 621
1044 621
1045 621
1046 621
1047 621
1048 621
1049 621
1050 621
1051 621
1052 621
1053 621
978 622
979 622
980 622
981 622
982 622
983 622
984 622
985 622
986 622
987 622
988 622
989 622
990 622
991 622
992 622
993 622
994 622
995 622
996 622
997 622
998 622
999 622
1000 622
1001 622
1002 622
1003 622
1004 622
1005 622
1006 622
1007 622
1008 622
1009 622
1010 622
1011 622
1012 622
1013 622
1014 622
1015 622
1016 622
1017 622
1018 622
1019 622
1020 622
1021 622
1022 622
1023 622
1024 622
1025 622
1026 622
1027 622
1028 622
1029 622
1030 622
1031 622
1032 622
1033 622
1034 622
1035 622
1036 622
1037 622
1038 622
1039 622
1040 622
1041 622
1042 622
1043 622
1044 622
1045 622
1046 622
1047 622
1048 622
1049 622
1050 622
1051 622
1052 622
1053 622
978 623
979 623
980 623
981 623
982 623
983 623
984 623
985 623
986 623
987 623
988 623
989 623
990 623
991 623
992 623
993 623
994 623
995 623
996 623
997 623
998 623
999 623
1000 623
1001 623
1002 623
1003 623
1004 623
1005 623
1006 623
1007 623
1008 623
1009 623
1010 623
1011 623
1012 623
1013 623
1014 623
1015 623
1016 623
1017 623
1018 623
1019 623
1020 623
1021 623
1022 623
1023 623
1024 623
1025 623
1026 623
1027 623
1028 623
1029 623
1030 623
1031 623
1032 623
1033 623
1034 623
1035 623
1036 623
1037 623
1038 623
1039 623
1040 623
1041 623
1042 623
1043 623
1044 623
1045 623
1046 623
1047 623
1048 623
1049 623
1050 623
1051 623
1052 623
1053 623
978 624
979 624
980 624
981 624
982 624
983 624
984 624
985 624
986 624
987 624
988 624
989 624
990 624
991 624
992 624
993 624
994 624
995 624
996 624
997 624
998 624
999 624
1000 624
1001 624
1002 624
1003 624
1004 624
1005 624
1006 624
1007 624
1008 624
1009 624
1010 624
1011 624
1012 624
1013 624
1014 624
1015 624
1016 624
1017 624
1018 624
1019 624
1020 624
1021 624
1022 624
1023 624
1024 624
1025 624
1026 624
1027 624
1028 624
1029 624
1030 624
1031 624
1032 624
1033 624
1034 624
1035 624
1036 624
1037 624
1038 624
1039 624
1040 624
1041 624
1042 624
1043 624
1044 624
1045 624
1046 624
1047 624
1048 624
1049 624
1050 624
1051 624
1052 624
1053 624
978 625
979 625
980 625
981 625
982 625
983 625
984 625
985 625
986 625
987 625
988 625
989 625
990 625
991 625
992 625
993 625
994 625
995 625
996 625
997 625
998 625
999 625
1000 625
1001 625
1002 625
1003 625
1004 625
1005 625
1006 625
1007 625
1008 625
1009 625
1010 625
1011 625
1012 625
1013 625
1014 625
1015 625
1016 625
1017 625
1018 625
1019 625
1020 625
1021 625
1022 625
1023 625
1024 625
1025 625
1026 625
1027 625
1028 625
1029 625
1030 625
1031 625
1032 625
1033 625
1034 625
1035 625
1036 625
1037 625
1038 625
1039 625
1040 625
1041 625
1042 625
1043 625
1044 625
1045 625
1046 625
1047 625
1048 625
1049 625
1050 625
1051 625
1052 625
1053 625
978 626
979 626
980 626
981 626
982 626
983 626
984 626
985 626
986 626
987 626
988 626
989 626
990 626
991 626
992 626
993 626
994 626
995 626
996 626
997 626
998 626
999 626
1000 626
1001 626
1002 626
1003 626
1004 626
1005 626
1006 626
1007 626
1008 626
1009 626
1010 626
1011 626
1012 626
1013 626
1014 626
1015 626
1016 626
1017 626
1018 626
1019 626
1020 626
1021 626
1022 626
1023 626
1024 626
1025 626
1026 626
1027 626
1028 626
1029 626
1030 626
1031 626
1032 626
1033 626
1034 626
1035 626
1036 626
1037 626
1038 626
1039 626
1040 626
1041 626
1042 626
1043 626
1044 626
1045 626
1046 626
1047 626
1048 626
1049 626
1050 626
1051 626
1052 626
1053 626
978 627
979 627
980 627
981 627
982 627
983 627
984 627
985 627
986 627
987 627
988 627
989 627
990 627
991 627
992 627
993 627
994 627
995 627
996 627
997 627
998 627
999 627
1000 627
1001 627
1002 627
1003 627
1004 627
1005 627
1006 627
1007 627
1008 627
1009 627
1010 627
1011 627
1012 627
1013 627
1014 627
1015 627
1016 627
1017 627
1018 627
1019 627
1020 627
1021 627
1022 627
1023 627
1024 627
1025 627
1026 627
1027 627
1028 627
1029 627
1030 627
1031 627
1032 627
1033 627
1034 627
1035 627
1036 627
1037 627
1038 627
1039 627
1040 627
1041 627
1042 627
1043 627
1044 627
1045 627
1046 627
1047 627
1048 627
1049 627
1050 627
1051 627
1052 627
1053 627
978 628
979 628
980 628
981 628
982 628
983 628
984 628
985 628
986 628
987 628
988 628
989 628
990 628
991 628
992 628
993 628
994 628
995 628
996 628
997 628
998 628
999 628
1000 628
1001 628
1002 628
1003 628
1004 628
1005 628
1006 628
1007 628
1008 628
1009 628
1010 628
1011 628
1012 628
1013 628
1014 628
1015 628
1016 628
1017 628
1018 628
1019 628
1020 628
1021 628
1022 628
1023 628
1024 628
1025 628
1026 628
1027 628
1028 628
1029 628
1030 628
1031 628
1032 628
1033 628
1034 628
1035 628
1036 628
1037 628
1038 628
1039 628
1040 628
1041 628
1042 628
1043 628
1044 628
1045 628
1046 628
1047 628
1048 628
1049 628
1050 628
1051 628
1052 628
1053 628
978 629
979 629
980 629
981 629
982 629
983 629
984 629
985 629
986 629
987 629
988 629
989 629
990 629
991 629
992 629
993 629
994 629
995 629
996 629
997 629
998 629
999 629
1000 629
1001 629
1002 629
1003 629
1004 629
1005 629
1006 629
1007 629
1008 629
1009 629
1010 629
1011 629
1012 629
1013 629
1014 629
1015 629
1016 629
1017 629
1018 629
1019 629
1020 629
1021 629
1022 629
1023 629
1024 629
1025 629
1026 629
1027 629
1028 629
1029 629
1030 629
1031 629
1032 629
1033 629
1034 629
1035 629
1036 629
1037 629
1038 629
1039 629
1040 629
1041 629
1042 629
1043 629
1044 629
1045 629
1046 629
1047 629
1048 629
1049 629
1050 629
1051 629
1052 629
1053 629
978 630
979 630
980 630
981 630
982 630
983 630
984 630
985 630
986 630
987 630
988 630
989 630
990 630
991 630
992 630
993 630
994 630
995 630
996 630
997 630
998 630
999 630
1000 630
1001 630
1002 630
1003 630
1004 630
1005 630
1006 630
1007 630
1008 630
1009 630
1010 630
1011 630
1012 630
1013 630
1014 630
1015 630
1016 630
1017 630
1018 630
1019 630
1020 630
1021 630
1022 630
1023 630
1024 630
1025 630
1026 630
1027 630
1028 630
1029 630
1030 630
1031 630
1032 630
1033 630
1034 630
1035 630
1036 630
1037 630
1038 630
1039 630
1040 630
1041 630
1042 630
1043 630
1044 630
1045 630
1046 630
1047 630
1048 630
1049 630
1050 630
1051 630
1052 630
1053 630
978 631
979 631
980 631
981 631
982 631
983 631
984 631
985 631
986 631
987 631
988 631
989 631
990 631
991 631
992 631
993 631
994 631
995 631
996 631
997 631
998 631
999 631
1000 631
1001 631
1002 631
1003 631
1004 631
1005 631
1006 631
1007 631
1008 631
1009 631
1010 631
1011 631
1012 631
1013 631
1014 631
1015 631
1016 631
1017 631
1018 631
1019 631
1020 631
1021 631
1022 631
1023 631
1024 631
1025 631
1026 631
1027 631
1028 631
1029 631
1030 631
1031 631
1032 631
1033 631
1034 631
1035 631
1036 631
1037 631
1038 631
1039 631
1040 631
1041 631
1042 631
1043 631
1044 631
1045 631
1046 631
1047 631
1048 631
1049 631
1050 631
1051 631
1052 631
1053 631
978 632
979 632
980 632
981 632
982 632
983 632
984 632
985 632
986 632
987 632
988 632
989 632
990 632
991 632
992 632
993 632
994 632
995 632
996 632
997 632
998 632
999 632
1000 632
1001 632
1002 632
1003 632
1004 632
1005 632
1006 632
1007 632
1008 632
1009 632
1010 632
1011 632
1012 632
1013 632
1014 632
1015 632
1016 632
1017 632
1018 632
1019 632
1020 632
1021 632
1022 632
1023 632
1024 632
1025 632
1026 632
1027 632
1028 632
1029 632
1030 632
1031 632
1032 632
1033 632
1034 632
1035 632
1036 632
1037 632
1038 632
1039 632
1040 632
1041 632
1042 632
1043 632
1044 632
1045 632
1046 632
1047 632
1048 632
1049 632
1050 632
1051 632
1052 632
1053 632
978 633
979 633
980 633
981 633
982 633
983 633
984 633
985 633
986 633
987 633
988 633
989 633
990 633
991 633
992 633
993 633
994 633
995 633
996 633
997 633
998 633
999 633
1000 633
1001 633
1002 633
1003 633
1004 633
1005 633
1006 633
1007 633
1008 633
1009 633
1010 633
1011 633
1012 633
1013 633
1014 633
1015 633
1016 633
1017 633
1018 633
1019 633
1020 633
1021 633
1022 633
1023 633
1024 633
1025 633
1026 633
1027 633
1028 633
1029 633
1030 633
1031 633
1032 633
1033 633
1034 633
1035 633
1036 633
1037 633
1038 633
1039 633
1040 633
1041 633
1042 633
1043 633
1044 633
1045 633
1046 633
1047 633
1048 633
1049 633
1050 633
1051 633
1052 633
1053 633
978 634
979 634
980 634
981 634
982 634
983 634
984 634
985 634
986 634
987 634
988 634
989 634
990 634
991 634
992 634
993 634
994 634
995 634
996 634
997 634
998 634
999 634
1000 634
1001 634
1002 634
1003 634
1004 634
1005 634
1006 634
1007 634
1008 634
1009 634
1010 634
1011 634
1012 634
1013 634
1014 634
1015 634
1016 634
1017 634
1018 634
1019 634
1020 634
1021 634
1022 634
1023 634
1024 634
1025 634
1026 634
1027 634
1028 634
1029 634
1030 634
1031 634
1032 634
1033 634
1034 634
1035 634
1036 634
1037 634
1038 634
1039 634
1040 634
1041 634
1042 634
1043 634
1044 634
1045 634
1046 634
1047 634
1048 634
1049 634
1050 634
1051 634
1052 634
1053 634
978 635
979 635
980 635
981 635
982 635
983 635
984 635
985 635
986 635
987 635
988 635
989 635
990 635
991 635
992 635
993 635
994 635
995 635
996 635
997 635
998 635
999 635
1000 635
1001 635
1002 635
1003 635
1004 635
1005 635
1006 635
1007 635
1008 635
1009 635
1010 635
1011 635
1012 635
1013 635
1014 635
1015 635
1016 635
1017 635
1018 635
1019 635
1020 635
1021 635
1022 635
1023 635
1024 635
1025 635
1026 635
1027 635
1028 635
1029 635
1030 635
1031 635
1032 635
1033 635
1034 635
1035 635
1036 635
1037 635
1038 635
1039 635
1040 635
1041 635
1042 635
1043 635
1044 635
1045 635
1046 635
1047 635
1048 635
1049 635
1050 635
1051 635
1052 635
1053 635
978 636
979 636
980 636
981 636
982 636
983 636
984 636
985 636
986 636
987 636
988 636
989 636
990 636
991 636
992 636
993 636
994 636
995 636
996 636
997 636
998 636
999 636
1000 636
1001 636
1002 636
1003 636
1004 636
1005 636
1006 636
1007 636
1008 636
1009 636
1010 636
1011 636
1012 636
1013 636
1014 636
1015 636
1016 636
1017 636
1018 636
1019 636
1020 636
1021 636
1022 636
1023 636
1024 636
1025 636
1026 636
1027 636
1028 636
1029 636
1030 636
1031 636
1032 636
1033 636
1034 636
1035 636
1036 636
1037 636
1038 636
1039 636
1040 636
1041 636
1042 636
1043 636
1044 636
1045 636
1046 636
1047 636
1048 636
1049 636
1050 636
1051 636
1052 636
1053 636
978 637
979 637
980 637
981 637
982 637
983 637
984 637
985 637
986 637
987 637
988 637
989 637
990 637
991 637
992 637
993 637
994 637
995 637
996 637
997 637
998 637
999 637
1000 637
1001 637
1002 637
1003 637
1004 637
1005 637
1006 637
1007 637
1008 637
1009 637
1010 637
1011 637
1012 637
1013 637
1014 637
1015 637
1016 637
1017 637
1018 637
1019 637
1020 637
1021 637
1022 637
1023 637
1024 637
1025 637
1026 637
1027 637
1028 637
1029 637
1030 637
1031 637
1032 637
1033 637
1034 637
1035 637
1036 637
1037 637
1038 637
1039 637
1040 637
1041 637
1042 637
1043 637
1044 637
1045 637
1046 637
1047 637
1048 637
1049 637
1050 637
1051 637
1052 637
1053 637
978 638
979 638
980 638
981 638
982 638
983 638
984 638
985 638
986 638
987 638
988 638
989 638
990 638
991 638
992 638
993 638
994 638
995 638
996 638
997 638
998 638
999 638
1000 638
1001 638
1002 638
1003 638
1004 638
1005 638
1006 638
1007 638
1008 638
1009 638
1010 638
1011 638
1012 638
1013 638
1014 638
1015 638
1016 638
1017 638
1018 638
1019 638
1020 638
1021 638
1022 638
1023 638
1024 638
1025 638
1026 638
1027 638
1028 638
1029 638
1030 638
1031 638
1032 638
1033 638
1034 638
1035 638
1036 638
1037 638
1038 638
1039 638
1040 638
1041 638
1042 638
1043 638
1044 638
1045 638
1046 638
1047 638
1048 638
1049 638
1050 638
1051 638
1052 638
1053 638
978 639
979 639
980 639
981 639
982 639
983 639
984 639
985 639
986 639
987 639
988 639
989 639
990 639
991 639
992 639
993 639
994 639
995 639
996 639
997 639
998 639
999 639
1000 639
1001 639
1002 639
1003 639
1004 639
1005 639
1006 639
1007 639
1008 639
1009 639
1010 639
1011 639
1012 639
1013 639
1014 639
1015 639
1016 639
1017 639
1018 639
1019 639
1020 639
1021 639
1022 639
1023 639
1024 639
1025 639
1026 639
1027 639
1028 639
1029 639
1030 639
1031 639
1032 639
1033 639
1034 639
1035 639
1036 639
1037 639
1038 639
1039 639
1040 639
1041 639
1042 639
1043 639
1044 639
1045 639
1046 639
1047 639
1048 639
1049 639
1050 639
1051 639
1052 639
1053 639
978 640
979 640
980 640
981 640
982 640
983 640
984 640
985 640
986 640
987 640
988 640
989 640
990 640
991 640
992 640
993 640
994 640
995 640
996 640
997 640
998 640
999 640
1000 640
1001 640
1002 640
1003 640
1004 640
1005 640
1006 640
1007 640
1008 640
1009 640
1010 640
1011 640
1012 640
1013 640
1014 640
1015 640
1016 640
1017 640
1018 640
1019 640
1020 640
1021 640
1022 640
1023 640
1024 640
1025 640
1026 640
1027 640
1028 640
1029 640
1030 640
1031 640
1032 640
1033 640
1034 640
1035 640
1036 640
1037 640
1038 640
1039 640
1040 640
1041 640
1042 640
1043 640
1044 640
1045 640
1046 640
1047 640
1048 640
1049 640
1050 640
1051 640
1052 640
1053 640
978 641
979 641
980 641
981 641
982 641
983 641
984 641
985 641
986 641
987 641
988 641
989 641
990 641
991 641
992 641
993 641
994 641
995 641
996 641
997 641
998 641
999 641
1000 641
1001 641
1002 641
1003 641
1004 641
1005 641
1006 641
1007 641
1008 641
1009 641
1010 641
1011 641
1012 641
1013 641
1014 641
1015 641
1016 641
1017 641
1018 641
1019 641
1020 641
1021 641
1022 641
1023 641
1024 641
1025 641
1026 641
1027 641
1028 641
1029 641
1030 641
1031 641
1032 641
1033 641
1034 641
1035 641
1036 641
1037 641
1038 641
1039 641
1040 641
1041 641
1042 641
1043 641
1044 641
1045 641
1046 641
1047 641
1048 641
1049 641
1050 641
1051 641
1052 641
1053 641
978 642
979 642
980 642
981 642
982 642
983 642
984 642
985 642
986 642
987 642
988 642
989 642
990 642
991 642
992 642
993 642
994 642
995 642
996 642
997 642
998 642
999 642
1000 642
1001 642
1002 642
1003 642
1004 642
1005 642
1006 642
1007 642
1008 642
1009 642
1010 642
1011 642
1012 642
1013 642
1014 642
1015 642
1016 642
1017 642
1018 642
1019 642
1020 642
1021 642
1022 642
1023 642
1024 642
1025 642
1026 642
1027 642
1028 642
1029 642
1030 642
1031 642
1032 642
1033 642
1034 642
1035 642
1036 642
1037 642
1038 642
1039 642
1040 642
1041 642
1042 642
1043 642
1044 642
1045 642
1046 642
1047 642
1048 642
1049 642
1050 642
1051 642
1052 642
1053 642
978 643
979 643
980 643
981 643
982 643
983 643
984 643
985 643
986 643
987 643
988 643
989 643
990 643
991 643
992 643
993 643
994 643
995 643
996 643
997 643
998 643
999 643
1000 643
1001 643
1002 643
1003 643
1004 643
1005 643
1006 643
1007 643
1008 643
1009 643
1010 643
1011 643
1012 643
1013 643
1014 643
1015 643
1016 643
1017 643
1018 643
1019 643
1020 643
1021 643
1022 643
1023 643
1024 643
1025 643
1026 643
1027 643
1028 643
1029 643
1030 643
1031 643
1032 643
1033 643
1034 643
1035 643
1036 643
1037 643
1038 643
1039 643
1040 643
1041 643
1042 643
1043 643
1044 643
1045 643
1046 643
1047 643
1048 643
1049 643
1050 643
1051 643
1052 643
1053 643
978 644
979 644
980 644
981 644
982 644
983 644
984 644
985 644
986 644
987 644
988 644
989 644
990 644
991 644
992 644
993 644
994 644
995 644
996 644
997 644
998 644
999 644
1000 644
1001 644
1002 644
1003 644
1004 644
1005 644
1006 644
1007 644
1008 644
1009 644
1010 644
1011 644
1012 644
1013 644
1014 644
1015 644
1016 644
1017 644
1018 644
1019 644
1020 644
1021 644
1022 644
1023 644
1024 644
1025 644
1026 644
1027 644
1028 644
1029 644
1030 644
1031 644
1032 644
1033 644
1034 644
1035 644
1036 644
1037 644
1038 644
1039 644
1040 644
1041 644
1042 644
1043 644
1044 644
1045 644
1046 644
1047 644
1048 644
1049 644
1050 644
1051 644
1052 644
1053 644
978 645
979 645
980 645
981 645
982 645
983 645
984 645
985 645
986 645
987 645
988 645
989 645
990 645
991 645
992 645
993 645
994 645
995 645
996 645
997 645
998 645
999 645
1000 645
1001 645
1002 645
1003 645
1004 645
1005 645
1006 645
1007 645
1008 645
1009 645
1010 645
1011 645
1012 645
1013 645
1014 645
1015 645
1016 645
1017 645
1018 645
1019 645
1020 645
1021 645
1022 645
1023 645
1024 645
1025 645
1026 645
1027 645
1028 645
1029 645
1030 645
1031 645
1032 645
1033 645
1034 645
1035 645
1036 645
1037 645
1038 645
1039 645
1040 645
1041 645
1042 645
1043 645
1044 645
1045 645
1046 645
1047 645
1048 645
1049 645
1050 645
1051 645
1052 645
1053 645
978 646
979 646
980 646
981 646
982 646
983 646
984 646
985 646
986 646
987 646
988 646
989 646
990 646
991 646
992 646
993 646
994 646
995 646
996 646
997 646
998 646
999 646
1000 646
1001 646
1002 646
1003 646
1004 646
1005 646
1006 646
1007 646
1008 646
1009 646
1010 646
1011 646
1012 646
1013 646
1014 646
1015 646
1016 646
1017 646
1018 646
1019 646
1020 646
1021 646
1022 646
1023 646
1024 646
1025 646
1026 646
1027 646
1028 646
1029 646
1030 646
1031 646
1032 646
1033 646
1034 646
1035 646
1036 646
1037 646
1038 646
1039 646
1040 646
1041 646
1042 646
1043 646
1044 646
1045 646
1046 646
1047 646
1048 646
1049 646
1050 646
1051 646
1052 646
1053 646
978 647
979 647
980 647
981 647
982 647
983 647
984 647
985 647
986 647
987 647
988 647
989 647
990 647
991 647
992 647
993 647
994 647
995 647
996 647
997 647
998 647
999 647
1000 647
1001 647
1002 647
1003 647
1004 647
1005 647
1006 647
1007 647
1008 647
1009 647
1010 647
1011 647
1012 647
1013 647
1014 647
1015 647
1016 647
1017 647
1018 647
1019 647
1020 647
1021 647
1022 647
1023 647
1024 647
1025 647
1026 647
1027 647
1028 647
1029 647
1030 647
1031 647
1032 647
1033 647
1034 647
1035 647
1036 647
1037 647
1038 647
1039 647
1040 647
1041 647
1042 647
1043 647
1044 647
1045 647
1046 647
1047 647
1048 647
1049 647
1050 647
1051 647
1052 647
1053 647
978 648
979 648
980 648
981 648
982 648
983 648
984 648
985 648
986 648
987 648
988 648
989 648
990 648
991 648
992 648
993 648
994 648
995 648
996 648
997 648
998 648
999 648
1000 648
1001 648
1002 648
1003 648
1004 648
1005 648
1006 648
1007 648
1008 648
1009 648
1010 648
1011 648
1012 648
1013 648
1014 648
1015 648
1016 648
1017 648
1018 648
1019 648
1020 648
1021 648
1022 648
1023 648
1024 648
1025 648
1026 648
1027 648
1028 648
1029 648
1030 648
1031 648
1032 648
1033 648
1034 648
1035 648
1036 648
1037 648
1038 648
1039 648
1040 648
1041 648
1042 648
1043 648
1044 648
1045 648
1046 648
1047 648
1048 648
1049 648
1050 648
1051 648
1052 648
1053 648
978 649
979 649
980 649
981 649
982 649
983 649
984 649
985 649
986 649
987 649
988 649
989 649
990 649
991 649
992 649
993 649
994 649
995 649
996 649
997 649
998 649
999 649
1000 649
1001 649
1002 649
1003 649
1004 649
1005 649
1006 649
1007 649
1008 649
1009 649
1010 649
1011 649
1012 649
1013 649
1014 649
1015 649
1016 649
1017 649
1018 649
1019 649
1020 649
1021 649
1022 649
1023 649
1024 649
1025 649
1026 649
1027 649
1028 649
1029 649
1030 649
1031 649
1032 649
1033 649
1034 649
1035 649
1036 649
1037 649
1038 649
1039 649
1040 649
1041 649
1042 649
1043 649
1044 649
1045 649
1046 649
1047 649
1048 649
1049 649
1050 649
1051 649
1052 649
1053 649
978 650
979 650
980 650
981 650
982 650
983 650
984 650
985 650
986 650
987 650
988 650
989 650
990 650
991 650
992 650
993 650
994 650
995 650
996 650
997 650
998 650
999 650
1000 650
1001 650
1002 650
1003 650
1004 650
1005 650
1006 650
1007 650
1008 650
1009 650
1010 650
1011 650
1012 650
1013 650
1014 650
1015 650
1016 650
1017 650
1018 650
1019 650
1020 650
1021 650
1022 650
1023 650
1024 650
1025 650
1026 650
1027 650
1028 650
1029 650
1030 650
1031 650
1032 650
1033 650
1034 650
1035 650
1036 650
1037 650
1038 650
1039 650
1040 650
1041 650
1042 650
1043 650
1044 650
1045 650
1046 650
1047 650
1048 650
1049 650
1050 650
1051 650
1052 650
1053 650
978 651
979 651
980 651
981 651
982 651
983 651
984 651
985 651
986 651
987 651
988 651
989 651
990 651
991 651
992 651
993 651
994 651
995 651
996 651
997 651
998 651
999 651
1000 651
1001 651
1002 651
1003 651
1004 651
1005 651
1006 651
1007 651
1008 651
1009 651
1010 651
1011 651
1012 651
1013 651
1014 651
1015 651
1016 651
1017 651
1018 651
1019 651
1020 651
1021 651
1022 651
1023 651
1024 651
1025 651
1026 651
1027 651
1028 651
1029 651
1030 651
1031 651
1032 651
1033 651
1034 651
1035 651
1036 651
1037 651
1038 651
1039 651
1040 651
1041 651
1042 651
1043 651
1044 651
1045 651
1046 651
1047 651
1048 651
1049 651
1050 651
1051 651
1052 651
1053 651
978 652
979 652
980 652
981 652
982 652
983 652
984 652
985 652
986 652
987 652
988 652
989 652
990 652
991 652
992 652
993 652
994 652
995 652
996 652
997 652
998 652
999 652
1000 652
1001 652
1002 652
1003 652
1004 652
1005 652
1006 652
1007 652
1008 652
1009 652
1010 652
1011 652
1012 652
1013 652
1014 652
1015 652
1016 652
1017 652
1018 652
1019 652
1020 652
1021 652
1022 652
1023 652
1024 652
1025 652
1026 652
1027 652
1028 652
1029 652
1030 652
1031 652
1032 652
1033 652
1034 652
1035 652
1036 652
1037 652
1038 652
1039 652
1040 652
1041 652
1042 652
1043 652
1044 652
1045 652
1046 652
1047 652
1048 652
1049 652
1050 652
1051 652
1052 652
1053 652
978 653
979 653
980 653
981 653
982 653
983 653
984 653
985 653
986 653
987 653
988 653
989 653
990 653
991 653
992 653
993 653
994 653
995 653
996 653
997 653
998 653
999 653
1000 653
1001 653
1002 653
1003 653
1004 653
1005 653
1006 653
1007 653
1008 653
1009 653
1010 653
1011 653
1012 653
1013 653
1014 653
1015 653
1016 653
1017 653
1018 653
1019 653
1020 653
1021 653
1022 653
1023 653
1024 653
1025 653
1026 653
1027 653
1028 653
1029 653
1030 653
1031 653
1032 653
1033 653
1034 653
1035 653
1036 653
1037 653
1038 653
1039 653
1040 653
1041 653
1042 653
1043 653
1044 653
1045 653
1046 653
1047 653
1048 653
1049 653
1050 653
1051 653
1052 653
1053 653
978 654
979 654
980 654
981 654
982 654
983 654
984 654
985 654
986 654
987 654
988 654
989 654
990 654
991 654
992 654
993 654
994 654
995 654
996 654
997 654
998 654
999 654
1000 654
1001 654
1002 654
1003 654
1004 654
1005 654
1006 654
1007 654
1008 654
1009 654
1010 654
1011 654
1012 654
1013 654
1014 654
1015 654
1016 654
1017 654
1018 654
1019 654
1020 654
1021 654
1022 654
1023 654
1024 654
1025 654
1026 654
1027 654
1028 654
1029 654
1030 654
1031 654
1032 654
1033 654
1034 654
1035 654
1036 654
1037 654
1038 654
1039 654
1040 654
1041 654
1042 654
1043 654
1044 654
1045 654
1046 654
1047 654
1048 654
1049 654
1050 654
1051 654
1052 654
1053 654
978 655
979 655
980 655
981 655
982 655
983 655
984 655
985 655
986 655
987 655
988 655
989 655
990 655
991 655
992 655
993 655
994 655
995 655
996 655
997 655
998 655
999 655
1000 655
1001 655
1002 655
1003 655
1004 655
1005 655
1006 655
1007 655
1008 655
1009 655
1010 655
1011 655
1012 655
1013 655
1014 655
1015 655
1016 655
1017 655
1018 655
1019 655
1020 655
1021 655
1022 655
1023 655
1024 655
1025 655
1026 655
1027 655
1028 655
1029 655
1030 655
1031 655
1032 655
1033 655
1034 655
1035 655
1036 655
1037 655
1038 655
1039 655
1040 655
1041 655
1042 655
1043 655
1044 655
1045 655
1046 655
1047 655
1048 655
1049 655
1050 655
1051 655
1052 655
1053 655
978 656
979 656
980 656
981 656
982 656
983 656
984 656
985 656
986 656
987 656
988 656
989 656
990 656
991 656
992 656
993 656
994 656
995 656
996 656
997 656
998 656
999 656
1000 656
1001 656
1002 656
1003 656
1004 656
1005 656
1006 656
1007 656
1008 656
1009 656
1010 656
1011 656
1012 656
1013 656
1014 656
1015 656
1016 656
1017 656
1018 656
1019 656
1020 656
1021 656
1022 656
1023 656
1024 656
1025 656
1026 656
1027 656
1028 656
1029 656
1030 656
1031 656
1032 656
1033 656
1034 656
1035 656
1036 656
1037 656
1038 656
1039 656
1040 656
1041 656
1042 656
1043 656
1044 656
1045 656
1046 656
1047 656
1048 656
1049 656
1050 656
1051 656
1052 656
1053 656
978 657
979 657
980 657
981 657
982 657
983 657
984 657
985 657
986 657
987 657
988 657
989 657
990 657
991 657
992 657
993 657
994 657
995 657
996 657
997 657
998 657
999 657
1000 657
1001 657
1002 657
1003 657
1004 657
1005 657
1006 657
1007 657
1008 657
1009 657
1010 657
1011 657
1012 657
1013 657
1014 657
1015 657
1016 657
1017 657
1018 657
1019 657
1020 657
1021 657
1022 657
1023 657
1024 657
1025 657
1026 657
1027 657
1028 657
1029 657
1030 657
1031 657
1032 657
1033 657
1034 657
1035 657
1036 657
1037 657
1038 657
1039 657
1040 657
1041 657
1042 657
1043 657
1044 657
1045 657
1046 657
1047 657
1048 657
1049 657
1050 657
1051 657
1052 657
1053 657
978 658
979 658
980 658
981 658
982 658
983 658
984 658
985 658
986 658
987 658
988 658
989 658
990 658
991 658
992 658
993 658
994 658
995 658
996 658
997 658
998 658
999 658
1000 658
1001 658
1002 658
1003 658
1004 658
1005 658
1006 658
1007 658
1008 658
1009 658
1010 658
1011 658
1012 658
1013 658
1014 658
1015 658
1016 658
1017 658
1018 658
1019 658
1020 658
1021 658
1022 658
1023 658
1024 658
1025 658
1026 658
1027 658
1028 658
1029 658
1030 658
1031 658
1032 658
1033 658
1034 658
1035 658
1036 658
1037 658
1038 658
1039 658
1040 658
1041 658
1042 658
1043 658
1044 658
1045 658
1046 658
1047 658
1048 658
1049 658
1050 658
1051 658
1052 658
1053 658
978 659
979 659
980 659
981 659
982 659
983 659
984 659
985 659
986 659
987 659
988 659
989 659
990 659
991 659
992 659
993 659
994 659
995 659
996 659
997 659
998 659
999 659
1000 659
1001 659
1002 659
1003 659
1004 659
1005 659
1006 659
1007 659
1008 659
1009 659
1010 659
1011 659
1012 659
1013 659
1014 659
1015 659
1016 659
1017 659
1018 659
1019 659
1020 659
1021 659
1022 659
1023 659
1024 659
1025 659
1026 659
1027 659
1028 659
1029 659
1030 659
1031 659
1032 659
1033 659
1034 659
1035 659
1036 659
1037 659
1038 659
1039 659
1040 659
1041 659
1042 659
1043 659
1044 659
1045 659
1046 659
1047 659
1048 659
1049 659
1050 659
1051 659
1052 659
1053 659
1098 697
1099 697
1100 697
1101 697
1102 697
1103 697
1104 697
1105 697
1106 697
1107 697
1108 697
1109 697
1110 697
1111 697
1112 697
1113 697
1114 697
1115 697
1116 697
1117 697
1118 697
1119 697
1120 697
1121 697
1122 697
1123 697
1124 697
1125 697
1126 697
1127 697
1128 697
1129 697
1130 697
1131 697
1132 697
1133 697
1134 697
1135 697
1136 697
1137 697
1138 697
1139 697
1140 697
1141 697
1142 697
1143 697
1144 697
1145 697
1146 697
1147 697
1148 697
1149 697
1150 697
1151 697
1152 697
1153 697
1154 697
1155 697
1156 697
1157 697
1158 697
1159 697
1160 697
1161 697
1162 697
1163 697
1164 697
1165 697
1166 697
1167 697
1168 697
1169 697
1170 697
1171 697
1172 697
1173 697
1098 698
1099 698
1100 698
1101 698
1102 698
1103 698
1104 698
1105 698
1106 698
1107 698
1108 698
1109 698
1110 698
1111 698
1112 698
1113 698
1114 698
1115 698
1116 698
1117 698
1118 698
1119 698
1120 698
1121 698
1122 698
1123 698
1124 698
1125 698
1126 698
1127 698
1128 698
1129 698
1130 698
1131 698
1132 698
1133 698
1134 698
1135 698
1136 698
1137 698
1138 698
1139 698
1140 698
1141 698
1142 698
1143 698
1144 698
1145 698
1146 698
1147 698
1148 698
1149 698
1150 698
1151 698
1152 698
1153 698
1154 698
1155 698
1156 698
1157 698
1158 698
1159 698
1160 698
1161 698
1162 698
1163 698
1164 698
1165 698
1166 698
1167 698
1168 698
1169 698
1170 698
1171 698
1172 698
1173 698
1098 699
1099 699
1100 699
1101 699
1102 699
1103 699
1104 699
1105 699
1106 699
1107 699
1108 699
1109 699
1110 699
1111 699
1112 699
1113 699
1114 699
1115 699
1116 699
1117 699
1118 699
1119 699
1120 699
1121 699
1122 699
1123 699
1124 699
1125 699
1126 699
1127 699
1128 699
1129 699
1130 699
1131 699
1132 699
1133 699
1134 699
1135 699
1136 699
1137 699
1138 699
1139 699
1140 699
1141 699
1142 699
1143 699
1144 699
1145 699
1146 699
1147 699
1148 699
1149 699
1150 699
1151 699
1152 699
1153 699
1154 699
1155 699
1156 699
1157 699
1158 699
1159 699
1160 699
1161 699
1162 699
1163 699
1164 699
1165 699
1166 699
1167 699
1168 699
1169 699
1170 699
1171 699
1172 699
1173 699
1098 700
1099 700
1100 700
1101 700
1102 700
1103 700
1104 700
1105 700
1106 700
1107 700
1108 700
1109 700
1110 700
1111 700
1112 700
1113 700
1114 700
1115 700
1116 700
1117 700
1118 700
1119 700
1120 700
1121 700
1122 700
1123 700
1124 700
1125 700
1126 700
1127 700
1128 700
1129 700
1130 700
1131 700
1132 700
1133 700
1134 700
1135 700
1136 700
1137 700
1138 700
1139 700
1140 700
1141 700
1142 700
1143 700
1144 700
1145 700
1146 700
1147 700
1148 700
1149 700
1150 700
1151 700
1152 700
1153 700
1154 700
1155 700
1156 700
1157 700
1158 700
1159 700
1160 700
1161 700
1162 700
1163 700
1164 700
1165 700
1166 700
1167 700
1168 700
1169 700
1170 700
1171 700
1172 700
1173 700
1098 701
1099 701
1100 701
1101 701
1102 701
1103 701
1104 701
1105 701
1106 701
1107 701
1108 701
1109 701
1110 701
1111 701
1112 701
1113 701
1114 701
1115 701
1116 701
1117 701
1118 701
1119 701
1120 701
1121 701
1122 701
1123 701
1124 701
1125 701
1126 701
1127 701
1128 701
1129 701
1130 701
1131 701
1132 701
1133 701
1134 701
1135 701
1136 701
1137 701
1138 701
1139 701
1140 701
1141 701
1142 701
1143 701
1144 701
1145 701
1146 701
1147 701
1148 701
1149 701
1150 701
1151 701
1152 701
1153 701
1154 701
1155 701
1156 701
1157 701
1158 701
1159 701
1160 701
1161 701
1162 701
1163 701
1164 701
1165 701
1166 701
1167 701
1168 701
1169 701
1170 701
1171 701
1172 701
1173 701
1098 702
1099 702
1100 702
1101 702
1102 702
1103 702
1104 702
1105 702
1106 702
1107 702
1108 702
1109 702
1110 702
1111 702
1112 702
1113 702
1114 702
1115 702
1116 702
1117 702
1118 702
1119 702
1120 702
1121 702
1122 702
1123 702
1124 702
1125 702
1126 702
1127 702
1128 702
1129 702
1130 702
1131 702
1132 702
1133 702
1134 702
1135 702
1136 702
1137 702
1138 702
1139 702
1140 702
1141 702
1142 702
1143 702
1144 702
1145 702
1146 702
1147 702
1148 702
1149 702
1150 702
1151 702
1152 702
1153 702
1154 702
1155 702
1156 702
1157 702
1158 702
1159 702
1160 702
1161 702
1162 702
1163 702
1164 702
1165 702
1166 702
1167 702
1168 702
1169 702
1170 702
1171 702
1172 702
1173 702
1098 703
1099 703
1100 703
1101 703
1102 703
1103 703
1104 703
1105 703
1106 703
1107 703
1108 703
1109 703
1110 703
1111 703
1112 703
1113 703
1114 703
1115 703
1116 703
1117 703
1118 703
1119 703
1120 703
1121 703
1122 703
1123 703
1124 703
1125 703
1126 703
1127 703
1128 703
1129 703
1130 703
1131 703
1132 703
1133 703
1134 703
1135 703
1136 703
1137 703
1138 703
1139 703
1140 703
1141 703
1142 703
1143 703
1144 703
1145 703
1146 703
1147 703
1148 703
1149 703
1150 703
1151 703
1152 703
1153 703
1154 703
1155 703
1156 703
1157 703
1158 703
1159 703
1160 703
1161 703
1162 703
1163 703
1164 703
1165 703
1166 703
1167 703
1168 703
1169 703
1170 703
1171 703
1172 703
1173 703
1098 704
1099 704
1100 704
1101 704
1102 704
1103 704
1104 704
1105 704
1106 704
1107 704
1108 704
1109 704
1110 704
1111 704
1112 704
1113 704
1114 704
1115 704
1116 704
1117 704
1118 704
1119 704
1120 704
1121 704
1122 704
1123 704
1124 704
1125 704
1126 704
1127 704
1128 704
1129 704
1130 704
1131 704
1132 704
1133 704
1134 704
1135 704
1136 704
1137 704
1138 704
1139 704
1140 704
1141 704
1142 704
1143 704
1144 704
1145 704
1146 704
1147 704
1148 704
1149 704
1150 704
1151 704
1152 704
1153 704
1154 704
1155 704
1156 704
1157 704
1158 704
1159 704
1160 704
1161 704
1162 704
1163 704
1164 704
1165 704
1166 704
1167 704
1168 704
1169 704
1170 704
1171 704
1172 704
1173 704
1098 705
1099 705
1100 705
1101 705
1102 705
1103 705
1104 705
1105 705
1106 705
1107 705
1108 705
1109 705
1110 705
1111 705
1112 705
1113 705
1114 705
1115 705
1116 705
1117 705
1118 705
1119 705
1120 705
1121 705
1122 705
1123 705
1124 705
1125 705
1126 705
1127 705
1128 705
1129 705
1130 705
1131 705
1132 705
1133 705
1134 705
1135 705
1136 705
1137 705
1138 705
1139 705
1140 705
1141 705
1142 705
1143 705
1144 705
1145 705
1146 705
1147 705
1148 705
1149 705
1150 705
1151 705
1152 705
1153 705
1154 705
1155 705
1156 705
1157 705
1158 705
1159 705
1160 705
1161 705
1162 705
1163 705
1164 705
1165 705
1166 705
1167 705
1168 705
1169 705
1170 705
1171 705
1172 705
1173 705
1098 706
1099 706
1100 706
1101 706
1102 706
1103 706
1104 706
1105 706
1106 706
1107 706
1108 706
1109 706
1110 706
1111 706
1112 706
1113 706
1114 706
1115 706
1116 706
1117 706
1118 706
1119 706
1120 706
1121 706
1122 706
1123 706
1124 706
1125 706
1126 706
1127 706
1128 706
1129 706
1130 706
1131 706
1132 706
1133 706
1134 706
1135 706
1136 706
1137 706
1138 706
1139 706
1140 706
1141 706
1142 706
1143 706
1144 706
1145 706
1146 706
1147 706
1148 706
1149 706
1150 706
1151 706
1152 706
1153 706
1154 706
1155 706
1156 706
1157 706
1158 706
1159 706
1160 706
1161 706
1162 706
1163 706
1164 706
1165 706
1166 706
1167 706
1168 706
1169 706
1170 706
1171 706
1172 706
1173 706
1098 707
1099 707
1100 707
1101 707
1102 707
1103 707
1104 707
1105 707
1106 707
1107 707
1108 707
1109 707
1110 707
1111 707
1112 707
1113 707
1114 707
1115 707
1116 707
1117 707
1118 707
1119 707
1120 707
1121 707
1122 707
1123 707
1124 707
1125 707
1126 707
1127 707
1128 707
1129 707
1130 707
1131 707
1132 707
1133 707
1134 707
1135 707
1136 707
1137 707
1138 707
1139 707
1140 707
1141 707
1142 707
1143 707
1144 707
1145 707
1146 707
1147 707
1148 707
1149 707
1150 707
1151 707
1152 707
1153 707
1154 707
1155 707
1156 707
1157 707
1158 707
1159 707
1160 707
1161 707
1162 707
1163 707
1164 707
1165 707
1166 707
1167 707
1168 707
1169 707
1170 707
1171 707
1172 707
1173 707
1098 708
1099 708
1100 708
1101 708
1102 708
1103 708
1104 708
1105 708
1106 708
1107 708
1108 708
1109 708
1110 708
1111 708
1112 708
1113 708
1114 708
1115 708
1116 708
1117 708
1118 708
1119 708
1120 708
1121 708
1122 708
1123 708
1124 708
1125 708
1126 708
1127 708
1128 708
1129 708
1130 708
1131 708
1132 708
1133 708
1134 708
1135 708
1136 708
1137 708
1138 708
1139 708
1140 708
1141 708
1142 708
1143 708
1144 708
1145 708
1146 708
1147 708
1148 708
1149 708
1150 708
1151 708
1152 708
1153 708
1154 708
1155 708
1156 708
1157 708
1158 708
1159 708
1160 708
1161 708
1162 708
1163 708
1164 708
1165 708
1166 708
1167 708
1168 708
1169 708
1170 708
1171 708
1172 708
1173 708
1098 709
1099 709
1100 709
1101 709
1102 709
1103 709
1104 709
1105 709
1106 709
1107 709
1108 709
1109 709
1110 709
1111 709
1112 709
1113 709
1114 709
1115 709
1116 709
1117 709
1118 709
1119 709
1120 709
1121 709
1122 709
1123 709
1124 709
1125 709
1126 709
1127 709
1128 709
1129 709
1130 709
1131 709
1132 709
1133 709
1134 709
1135 709
1136 709
1137 709
1138 709
1139 709
1140 709
1141 709
1142 709
1143 709
1144 709
1145 709
1146 709
1147 709
1148 709
1149 709
1150 709
1151 709
1152 709
1153 709
1154 709
1155 709
1156 709
1157 709
1158 709
1159 709
1160 709
1161 709
1162 709
1163 709
1164 709
1165 709
1166 709
1167 709
1168 709
1169 709
1170 709
1171 709
1172 709
1173 709
1098 710
1099 710
1100 710
1101 710
1102 710
1103 710
1104 710
1105 710
1106 710
1107 710
1108 710
1109 710
1110 710
1111 710
1112 710
1113 710
1114 710
1115 710
1116 710
1117 710
1118 710
1119 710
1120 710
1121 710
1122 710
1123 710
1124 710
1125 710
1126 710
1127 710
1128 710
1129 710
1130 710
1131 710
1132 710
1133 710
1134 710
1135 710
1136 710
1137 710
1138 710
1139 710
1140 710
1141 710
1142 710
1143 710
1144 710
1145 710
1146 710
1147 710
1148 710
1149 710
1150 710
1151 710
1152 710
1153 710
1154 710
1155 710
1156 710
1157 710
1158 710
1159 710
1160 710
1161 710
1162 710
1163 710
1164 710
1165 710
1166 710
1167 710
1168 710
1169 710
1170 710
1171 710
1172 710
1173 710
1098 711
1099 711
1100 711
1101 711
1102 711
1103 711
1104 711
1105 711
1106 711
1107 711
1108 711
1109 711
1110 711
1111 711
1112 711
1113 711
1114 711
1115 711
1116 711
1117 711
1118 711
1119 711
1120 711
1121 711
1122 711
1123 711
1124 711
1125 711
1126 711
1127 711
1128 711
1129 711
1130 711
1131 711
1132 711
1133 711
1134 711
1135 711
1136 711
1137 711
1138 711
1139 711
1140 711
1141 711
1142 711
1143 711
1144 711
1145 711
1146 711
1147 711
1148 711
1149 711
1150 711
1151 711
1152 711
1153 711
1154 711
1155 711
1156 711
1157 711
1158 711
1159 711
1160 711
1161 711
1162 711
1163 711
1164 711
1165 711
1166 711
1167 711
1168 711
1169 711
1170 711
1171 711
1172 711
1173 711
1098 712
1099 712
1100 712
1101 712
1102 712
1103 712
1104 712
1105 712
1106 712
1107 712
1108 712
1109 712
1110 712
1111 712
1112 712
1113 712
1114 712
1115 712
1116 712
1117 712
1118 712
1119 712
1120 712
1121 712
1122 712
1123 712
1124 712
1125 712
1126 712
1127 712
1128 712
1129 712
1130 712
1131 712
1132 712
1133 712
1134 712
1135 712
1136 712
1137 712
1138 712
1139 712
1140 712
1141 712
1142 712
1143 712
1144 712
1145 712
1146 712
1147 712
1148 712
1149 712
1150 712
1151 712
1152 712
1153 712
1154 712
1155 712
1156 712
1157 712
1158 712
1159 712
1160 712
1161 712
1162 712
1163 712
1164 712
1165 712
1166 712
1167 712
1168 712
1169 712
1170 712
1171 712
1172 712
1173 712
1098 713
1099 713
1100 713
1101 713
1102 713
1103 713
1104 713
1105 713
1106 713
1107 713
1108 713
1109 713
1110 713
1111 713
1112 713
1113 713
1114 713
1115 713
1116 713
1117 713
1118 713
1119 713
1120 713
1121 713
1122 713
1123 713
1124 713
1125 713
1126 713
1127 713
1128 713
1129 713
1130 713
1131 713
1132 713
1133 713
1134 713
1135 713
1136 713
1137 713
1138 713
1139 713
1140 713
1141 713
1142 713
1143 713
1144 713
1145 713
1146 713
1147 713
1148 713
1149 713
1150 713
1151 713
1152 713
1153 713
1154 713
1155 713
1156 713
1157 713
1158 713
1159 713
1160 713
1161 713
1162 713
1163 713
1164 713
1165 713
1166 713
1167 713
1168 713
1169 713
1170 713
1171 713
1172 713
1173 713
1098 714
1099 714
1100 714
1101 714
1102 714
1103 714
1104 714
1105 714
1106 714
1107 714
1108 714
1109 714
1110 714
1111 714
1112 714
1113 714
1114 714
1115 714
1116 714
1117 714
1118 714
1119 714
1120 714
1121 714
1122 714
1123 714
1124 714
1125 714
1126 714
1127 714
1128 714
1129 714
1130 714
1131 714
1132 714
1133 714
1134 714
1135 714
1136 714
1137 714
1138 714
1139 714
1140 714
1141 714
1142 714
1143 714
1144 714
1145 714
1146 714
1147 714
1148 714
1149 714
1150 714
1151 714
1152 714
1153 714
1154 714
1155 714
1156 714
1157 714
1158 714
1159 714
1160 714
1161 714
1162 714
1163 714
1164 714
1165 714
1166 714
1167 714
1168 714
1169 714
1170 714
1171 714
1172 714
1173 714
1098 715
1099 715
1100 715
1101 715
1102 715
1103 715
1104 715
1105 715
1106 715
1107 715
1108 715
1109 715
1110 715
1111 715
1112 715
1113 715
1114 715
1115 715
1116 715
1117 715
1118 715
1119 715
1120 715
1121 715
1122 715
1123 715
1124 715
1125 715
1126 715
1127 715
1128 715
1129 715
1130 715
1131 715
1132 715
1133 715
1134 715
1135 715
1136 715
1137 715
1138 715
1139 715
1140 715
1141 715
1142 715
1143 715
1144 715
1145 715
1146 715
1147 715
1148 715
1149 715
1150 715
1151 715
1152 715
1153 715
1154 715
1155 715
1156 715
1157 715
1158 715
1159 715
1160 715
1161 715
1162 715
1163 715
1164 715
1165 715
1166 715
1167 715
1168 715
1169 715
1170 715
1171 715
1172 715
1173 715
1098 716
1099 716
1100 716
1101 716
1102 716
1103 716
1104 716
1105 716
1106 716
1107 716
1108 716
1109 716
1110 716
1111 716
1112 716
1113 716
1114 716
1115 716
1116 716
1117 716
1118 716
1119 716
1120 716
1121 716
1122 716
1123 716
1124 716
1125 716
1126 716
1127 716
1128 716
1129 716
1130 716
1131 716
1132 716
1133 716
1134 716
1135 716
1136 716
1137 716
1138 716
1139 716
1140 716
1141 716
1142 716
1143 716
1144 716
1145 716
1146 716
1147 716
1148 716
1149 716
1150 716
1151 716
1152 716
1153 716
1154 716
1155 716
1156 716
1157 716
1158 716
1159 716
1160 716
1161 716
1162 716
1163 716
1164 716
1165 716
1166 716
1167 716
1168 716
1169 716
1170 716
1171 716
1172 716
1173 716
1098 717
1099 717
1100 717
1101 717
1102 717
1103 717
1104 717
1105 717
1106 717
1107 717
1108 717
1109 717
1110 717
1111 717
1112 717
1113 717
1114 717
1115 717
1116 717
1117 717
1118 717
1119 717
1120 717
1121 717
1122 717
1123 717
1124 717
1125 717
1126 717
1127 717
1128 717
1129 717
1130 717
1131 717
1132 717
1133 717
1134 717
1135 717
1136 717
1137 717
1138 717
1139 717
1140 717
1141 717
1142 717
1143 717
1144 717
1145 717
1146 717
1147 717
1148 717
1149 717
1150 717
1151 717
1152 717
1153 717
1154 717
1155 717
1156 717
1157 717
1158 717
1159 717
1160 717
1161 717
1162 717
1163 717
1164 717
1165 717
1166 717
1167 717
1168 717
1169 717
1170 717
1171 717
1172 717
1173 717
1098 718
1099 718
1100 718
1101 718
1102 718
1103 718
1104 718
1105 718
1106 718
1107 718
1108 718
1109 718
1110 718
1111 718
1112 718
1113 718
1114 718
1115 718
1116 718
1117 718
1118 718
1119 718
1120 718
1121 718
1122 718
1123 718
1124 718
1125 718
1126 718
1127 718
1128 718
1129 718
1130 718
1131 718
1132 718
1133 718
1134 718
1135 718
1136 718
1137 718
1138 718
1139 718
1140 718
1141 718
1142 718
1143 718
1144 718
1145 718
1146 718
1147 718
1148 718
1149 718
1150 718
1151 718
1152 718
1153 718
1154 718
1155 718
1156 718
1157 718
1158 718
1159 718
1160 718
1161 718
1162 718
1163 718
1164 718
1165 718
1166 718
1167 718
1168 718
1169 718
1170 718
1171 718
1172 718
1173 718
1098 719
1099 719
1100 719
1101 719
1102 719
1103 719
1104 719
1105 719
1106 719
1107 719
1108 719
1109 719
1110 719
1111 719
1112 719
1113 719
1114 719
1115 719
1116 719
1117 719
1118 719
1119 719
1120 719
1121 719
1122 719
1123 719
1124 719
1125 719
1126 719
1127 719
1128 719
1129 719
1130 719
1131 719
1132 719
1133 719
1134 719
1135 719
1136 719
1137 719
1138 719
1139 719
1140 719
1141 719
1142 719
1143 719
1144 719
1145 719
1146 719
1147 719
1148 719
1149 719
1150 719
1151 719
1152 719
1153 719
1154 719
1155 719
1156 719
1157 719
1158 719
1159 719
1160 719
1161 719
1162 719
1163 719
1164 719
1165 719
1166 719
1167 719
1168 719
1169 719
1170 719
1171 719
1172 719
1173 719
1098 720
1099 720
1100 720
1101 720
1102 720
1103 720
1104 720
1105 720
1106 720
1107 720
1108 720
1109 720
1110 720
1111 720
1112 720
1113 720
1114 720
1115 720
1116 720
1117 720
1118 720
1119 720
1120 720
1121 720
1122 720
1123 720
1124 720
1125 720
1126 720
1127 720
1128 720
1129 720
1130 720
1131 720
1132 720
1133 720
1134 720
1135 720
1136 720
1137 720
1138 720
1139 720
1140 720
1141 720
1142 720
1143 720
1144 720
1145 720
1146 720
1147 720
1148 720
1149 720
1150 720
1151 720
1152 720
1153 720
1154 720
1155 720
1156 720
1157 720
1158 720
1159 720
1160 720
1161 720
1162 720
1163 720
1164 720
1165 720
1166 720
1167 720
1168 720
1169 720
1170 720
1171 720
1172 720
1173 720
1098 721
1099 721
1100 721
1101 721
1102 721
1103 721
1104 721
1105 721
1106 721
1107 721
1108 721
1109 721
1110 721
1111 721
1112 721
1113 721
1114 721
1115 721
1116 721
1117 721
1118 721
1119 721
1120 721
1121 721
1122 721
1123 721
1124 721
1125 721
1126 721
1127 721
1128 721
1129 721
1130 721
1131 721
1132 721
1133 721
1134 721
1135 721
1136 721
1137 721
1138 721
1139 721
1140 721
1141 721
1142 721
1143 721
1144 721
1145 721
1146 721
1147 721
1148 721
1149 721
1150 721
1151 721
1152 721
1153 721
1154 721
1155 721
1156 721
1157 721
1158 721
1159 721
1160 721
1161 721
1162 721
1163 721
1164 721
1165 721
1166 721
1167 721
1168 721
1169 721
1170 721
1171 721
1172 721
1173 721
1098 722
1099 722
1100 722
1101 722
1102 722
1103 722
1104 722
1105 722
1106 722
1107 722
1108 722
1109 722
1110 722
1111 722
1112 722
1113 722
1114 722
1115 722
1116 722
1117 722
1118 722
1119 722
1120 722
1121 722
1122 722
1123 722
1124 722
1125 722
1126 722
1127 722
1128 722
1129 722
1130 722
1131 722
1132 722
1133 722
1134 722
1135 722
1136 722
1137 722
1138 722
1139 722
1140 722
1141 722
1142 722
1143 722
1144 722
1145 722
1146 722
1147 722
1148 722
1149 722
1150 722
1151 722
1152 722
1153 722
1154 722
1155 722
1156 722
1157 722
1158 722
1159 722
1160 722
1161 722
1162 722
1163 722
1164 722
1165 722
1166 722
1167 722
1168 722
1169 722
1170 722
1171 722
1172 722
1173 722
1098 723
1099 723
1100 723
1101 723
1102 723
1103 723
1104 723
1105 723
1106 723
1107 723
1108 723
1109 723
1110 723
1111 723
1112 723
1113 723
1114 723
1115 723
1116 723
1117 723
1118 723
1119 723
1120 723
1121 723
1122 723
1123 723
1124 723
1125 723
1126 723
1127 723
1128 723
1129 723
1130 723
1131 723
1132 723
1133 723
1134 723
1135 723
1136 723
1137 723
1138 723
1139 723
1140 723
1141 723
1142 723
1143 723
1144 723
1145 723
1146 723
1147 723
1148 723
1149 723
1150 723
1151 723
1152 723
1153 723
1154 723
1155 723
1156 723
1157 723
1158 723
1159 723
1160 723
1161 723
1162 723
1163 723
1164 723
1165 723
1166 723
1167 723
1168 723
1169 723
1170 723
1171 723
1172 723
1173 723
1098 724
1099 724
1100 724
1101 724
1102 724
1103 724
1104 724
1105 724
1106 724
1107 724
1108 724
1109 724
1110 724
1111 724
1112 724
1113 724
1114 724
1115 724
1116 724
1117 724
1118 724
1119 724
1120 724
1121 724
1122 724
1123 724
1124 724
1125 724
1126 724
1127 724
1128 724
1129 724
1130 724
1131 724
1132 724
1133 724
1134 724
1135 724
1136 724
1137 724
1138 724
1139 724
1140 724
1141 724
1142 724
1143 724
1144 724
1145 724
1146 724
1147 724
1148 724
1149 724
1150 724
1151 724
1152 724
1153 724
1154 724
1155 724
1156 724
1157 724
1158 724
1159 724
1160 724
1161 724
1162 724
1163 724
1164 724
1165 724
1166 724
1167 724
1168 724
1169 724
1170 724
1171 724
1172 724
1173 724
1098 725
1099 725
1100 725
1101 725
1102 725
1103 725
1104 725
1105 725
1106 725
1107 725
1108 725
1109 725
1110 725
1111 725
1112 725
1113 725
1114 725
1115 725
1116 725
1117 725
1118 725
1119 725
1120 725
1121 725
1122 725
1123 725
1124 725
1125 725
1126 725
1127 725
1128 725
1129 725
1130 725
1131 725
1132 725
1133 725
1134 725
1135 725
1136 725
1137 725
1138 725
1139 725
1140 725
1141 725
1142 725
1143 725
1144 725
1145 725
1146 725
1147 725
1148 725
1149 725
1150 725
1151 725
1152 725
1153 725
1154 725
1155 725
1156 725
1157 725
1158 725
1159 725
1160 725
1161 725
1162 725
1163 725
1164 725
1165 725
1166 725
1167 725
1168 725
1169 725
1170 725
1171 725
1172 725
1173 725
1098 726
1099 726
1100 726
1101 726
1102 726
1103 726
1104 726
1105 726
1106 726
1107 726
1108 726
1109 726
1110 726
1111 726
1112 726
1113 726
1114 726
1115 726
1116 726
1117 726
1118 726
1119 726
1120 726
1121 726
1122 726
1123 726
1124 726
1125 726
1126 726
1127 726
1128 726
1129 726
1130 726
1131 726
1132 726
1133 726
1134 726
1135 726
1136 726
1137 726
1138 726
1139 726
1140 726
1141 726
1142 726
1143 726
1144 726
1145 726
1146 726
1147 726
1148 726
1149 726
1150 726
1151 726
1152 726
1153 726
1154 726
1155 726
1156 726
1157 726
1158 726
1159 726
1160 726
1161 726
1162 726
1163 726
1164 726
1165 726
1166 726
1167 726
1168 726
1169 726
1170 726
1171 726
1172 726
1173 726
1098 727
1099 727
1100 727
1101 727
1102 727
1103 727
1104 727
1105 727
1106 727
1107 727
1108 727
1109 727
1110 727
1111 727
1112 727
1113 727
1114 727
1115 727
1116 727
1117 727
1118 727
1119 727
1120 727
1121 727
1122 727
1123 727
1124 727
1125 727
1126 727
1127 727
1128 727
1129 727
1130 727
1131 727
1132 727
1133 727
1134 727
1135 727
1136 727
1137 727
1138 727
1139 727
1140 727
1141 727
1142 727
1143 727
1144 727
1145 727
1146 727
1147 727
1148 727
1149 727
1150 727
1151 727
1152 727
1153 727
1154 727
1155 727
1156 727
1157 727
1158 727
1159 727
1160 727
1161 727
1162 727
1163 727
1164 727
1165 727
1166 727
1167 727
1168 727
1169 727
1170 727
1171 727
1172 727
1173 727
1098 728
1099 728
1100 728
1101 728
1102 728
1103 728
1104 728
1105 728
1106 728
1107 728
1108 728
1109 728
1110 728
1111 728
1112 728
1113 728
1114 728
1115 728
1116 728
1117 728
1118 728
1119 728
1120 728
1121 728
1122 728
1123 728
1124 728
1125 728
1126 728
1127 728
1128 728
1129 728
1130 728
1131 728
1132 728
1133 728
1134 728
1135 728
1136 728
1137 728
1138 728
1139 728
1140 728
1141 728
1142 728
1143 728
1144 728
1145 728
1146 728
1147 728
1148 728
1149 728
1150 728
1151 728
1152 728
1153 728
1154 728
1155 728
1156 728
1157 728
1158 728
1159 728
1160 728
1161 728
1162 728
1163 728
1164 728
1165 728
1166 728
1167 728
1168 728
1169 728
1170 728
1171 728
1172 728
1173 728
1098 729
1099 729
1100 729
1101 729
1102 729
1103 729
1104 729
1105 729
1106 729
1107 729
1108 729
1109 729
1110 729
1111 729
1112 729
1113 729
1114 729
1115 729
1116 729
1117 729
1118 729
1119 729
1120 729
1121 729
1122 729
1123 729
1124 729
1125 729
1126 729
1127 729
1128 729
1129 729
1130 729
1131 729
1132 729
1133 729
1134 729
1135 729
1136 729
1137 729
1138 729
1139 729
1140 729
1141 729
1142 729
1143 729
1144 729
1145 729
1146 729
1147 729
1148 729
1149 729
1150 729
1151 729
1152 729
1153 729
1154 729
1155 729
1156 729
1157 729
1158 729
1159 729
1160 729
1161 729
1162 729
1163 729
1164 729
1165 729
1166 729
1167 729
1168 729
1169 729
1170 729
1171 729
1172 729
1173 729
1098 730
1099 730
1100 730
1101 730
1102 730
1103 730
1104 730
1105 730
1106 730
1107 730
1108 730
1109 730
1110 730
1111 730
1112 730
1113 730
1114 730
1115 730
1116 730
1117 730
1118 730
1119 730
1120 730
1121 730
1122 730
1123 730
1124 730
1125 730
1126 730
1127 730
1128 730
1129 730
1130 730
1131 730
1132 730
1133 730
1134 730
1135 730
1136 730
1137 730
1138 730
1139 730
1140 730
1141 730
1142 730
1143 730
1144 730
1145 730
1146 730
1147 730
1148 730
1149 730
1150 730
1151 730
1152 730
1153 730
1154 730
1155 730
1156 730
1157 730
1158 730
1159 730
1160 730
1161 730
1162 730
1163 730
1164 730
1165 730
1166 730
1167 730
1168 730
1169 730
1170 730
1171 730
1172 730
1173 730
1098 731
1099 731
1100 731
1101 731
1102 731
1103 731
1104 731
1105 731
1106 731
1107 731
1108 731
1109 731
1110 731
1111 731
1112 731
1113 731
1114 731
1115 731
1116 731
1117 731
1118 731
1119 731
1120 731
1121 731
1122 731
1123 731
1124 731
1125 731
1126 731
1127 731
1128 731
1129 731
1130 731
1131 731
1132 731
1133 731
1134 731
1135 731
1136 731
1137 731
1138 731
1139 731
1140 731
1141 731
1142 731
1143 731
1144 731
1145 731
1146 731
1147 731
1148 731
1149 731
1150 731
1151 731
1152 731
1153 731
1154 731
1155 731
1156 731
1157 731
1158 731
1159 731
1160 731
1161 731
1162 731
1163 731
1164 731
1165 731
1166 731
1167 731
1168 731
1169 731
1170 731
1171 731
1172 731
1173 731
1098 732
1099 732
1100 732
1101 732
1102 732
1103 732
1104 732
1105 732
1106 732
1107 732
1108 732
1109 732
1110 732
1111 732
1112 732
1113 732
1114 732
1115 732
1116 732
1117 732
1118 732
1119 732
1120 732
1121 732
1122 732
1123 732
1124 732
1125 732
1126 732
1127 732
1128 732
1129 732
1130 732
1131 732
1132 732
1133 732
1134 732
1135 732
1136 732
1137 732
1138 732
1139 732
1140 732
1141 732
1142 732
1143 732
1144 732
1145 732
1146 732
1147 732
1148 732
1149 732
1150 732
1151 732
1152 732
1153 732
1154 732
1155 732
1156 732
1157 732
1158 732
1159 732
1160 732
1161 732
1162 732
1163 732
1164 732
1165 732
1166 732
1167 732
1168 732
1169 732
1170 732
1171 732
1172 732
1173 732
1098 733
1099 733
1100 733
1101 733
1102 733
1103 733
1104 733
1105 733
1106 733
1107 733
1108 733
1109 733
1110 733
1111 733
1112 733
1113 733
1114 733
1115 733
1116 733
1117 733
1118 733
1119 733
1120 733
1121 733
1122 733
1123 733
1124 733
1125 733
1126 733
1127 733
1128 733
1129 733
1130 733
1131 733
1132 733
1133 733
1134 733
1135 733
1136 733
1137 733
1138 733
1139 733
1140 733
1141 733
1142 733
1143 733
1144 733
1145 733
1146 733
1147 733
1148 733
1149 733
1150 733
1151 733
1152 733
1153 733
1154 733
1155 733
1156 733
1157 733
1158 733
1159 733
1160 733
1161 733
1162 733
1163 733
1164 733
1165 733
1166 733
1167 733
1168 733
1169 733
1170 733
1171 733
1172 733
1173 733
1098 734
1099 734
1100 734
1101 734
1102 734
1103 734
1104 734
1105 734
1106 734
1107 734
1108 734
1109 734
1110 734
1111 734
1112 734
1113 734
1114 734
1115 734
1116 734
1117 734
1118 734
1119 734
1120 734
1121 734
1122 734
1123 734
1124 734
1125 734
1126 734
1127 734
1128 734
1129 734
1130 734
1131 734
1132 734
1133 734
1134 734
1135 734
1136 734
1137 734
1138 734
1139 734
1140 734
1141 734
1142 734
1143 734
1144 734
1145 734
1146 734
1147 734
1148 734
1149 734
1150 734
1151 734
1152 734
1153 734
1154 734
1155 734
1156 734
1157 734
1158 734
1159 734
1160 734
1161 734
1162 734
1163 734
1164 734
1165 734
1166 734
1167 734
1168 734
1169 734
1170 734
1171 734
1172 734
1173 734
1098 735
1099 735
1100 735
1101 735
1102 735
1103 735
1104 735
1105 735
1106 735
1107 735
1108 735
1109 735
1110 735
1111 735
1112 735
1113 735
1114 735
1115 735
1116 735
1117 735
1118 735
1119 735
1120 735
1121 735
1122 735
1123 735
1124 735
1125 735
1126 735
1127 735
1128 735
1129 735
1130 735
1131 735
1132 735
1133 735
1134 735
1135 735
1136 735
1137 735
1138 735
1139 735
1140 735
1141 735
1142 735
1143 735
1144 735
1145 735
1146 735
1147 735
1148 735
1149 735
1150 735
1151 735
1152 735
1153 735
1154 735
1155 735
1156 735
1157 735
1158 735
1159 735
1160 735
1161 735
1162 735
1163 735
1164 735
1165 735
1166 735
1167 735
1168 735
1169 735
1170 735
1171 735
1172 735
1173 735
1098 736
1099 736
1100 736
1101 736
1102 736
1103 736
1104 736
1105 736
1106 736
1107 736
1108 736
1109 736
1110 736
1111 736
1112 736
1113 736
1114 736
1115 736
1116 736
1117 736
1118 736
1119 736
1120 736
1121 736
1122 736
1123 736
1124 736
1125 736
1126 736
1127 736
1128 736
1129 736
1130 736
1131 736
1132 736
1133 736
1134 736
1135 736
1136 736
1137 736
1138 736
1139 736
1140 736
1141 736
1142 736
1143 736
1144 736
1145 736
1146 736
1147 736
1148 736
1149 736
1150 736
1151 736
1152 736
1153 736
1154 736
1155 736
1156 736
1157 736
1158 736
1159 736
1160 736
1161 736
1162 736
1163 736
1164 736
1165 736
1166 736
1167 736
1168 736
1169 736
1170 736
1171 736
1172 736
1173 736
1098 737
1099 737
1100 737
1101 737
1102 737
1103 737
1104 737
1105 737
1106 737
1107 737
1108 737
1109 737
1110 737
1111 737
1112 737
1113 737
1114 737
1115 737
1116 737
1117 737
1118 737
1119 737
1120 737
1121 737
1122 737
1123 737
1124 737
1125 737
1126 737
1127 737
1128 737
1129 737
1130 737
1131 737
1132 737
1133 737
1134 737
1135 737
1136 737
1137 737
1138 737
1139 737
1140 737
1141 737
1142 737
1143 737
1144 737
1145 737
1146 737
1147 737
1148 737
1149 737
1150 737
1151 737
1152 737
1153 737
1154 737
1155 737
1156 737
1157 737
1158 737
1159 737
1160 737
1161 737
1162 737
1163 737
1164 737
1165 737
1166 737
1167 737
1168 737
1169 737
1170 737
1171 737
1172 737
1173 737
1098 738
1099 738
1100 738
1101 738
1102 738
1103 738
1104 738
1105 738
1106 738
1107 738
1108 738
1109 738
1110 738
1111 738
1112 738
1113 738
1114 738
1115 738
1116 738
1117 738
1118 738
1119 738
1120 738
1121 738
1122 738
1123 738
1124 738
1125 738
1126 738
1127 738
1128 738
1129 738
1130 738
1131 738
1132 738
1133 738
1134 738
1135 738
1136 738
1137 738
1138 738
1139 738
1140 738
1141 738
1142 738
1143 738
1144 738
1145 738
1146 738
1147 738
1148 738
1149 738
1150 738
1151 738
1152 738
1153 738
1154 738
1155 738
1156 738
1157 738
1158 738
1159 738
1160 738
1161 738
1162 738
1163 738
1164 738
1165 738
1166 738
1167 738
1168 738
1169 738
1170 738
1171 738
1172 738
1173 738
1098 739
1099 739
1100 739
1101 739
1102 739
1103 739
1104 739
1105 739
1106 739
1107 739
1108 739
1109 739
1110 739
1111 739
1112 739
1113 739
1114 739
1115 739
1116 739
1117 739
1118 739
1119 739
1120 739
1121 739
1122 739
1123 739
1124 739
1125 739
1126 739
1127 739
1128 739
1129 739
1130 739
1131 739
1132 739
1133 739
1134 739
1135 739
1136 739
1137 739
1138 739
1139 739
1140 739
1141 739
1142 739
1143 739
1144 739
1145 739
1146 739
1147 739
1148 739
1149 739
1150 739
1151 739
1152 739
1153 739
1154 739
1155 739
1156 739
1157 739
1158 739
1159 739
1160 739
1161 739
1162 739
1163 739
1164 739
1165 739
1166 739
1167 739
1168 739
1169 739
1170 739
1171 739
1172 739
1173 739
1098 740
1099 740
1100 740
1101 740
1102 740
1103 740
1104 740
1105 740
1106 740
1107 740
1108 740
1109 740
1110 740
1111 740
1112 740
1113 740
1114 740
1115 740
1116 740
1117 740
1118 740
1119 740
1120 740
1121 740
1122 740
1123 740
1124 740
1125 740
1126 740
1127 740
1128 740
1129 740
1130 740
1131 740
1132 740
1133 740
1134 740
1135 740
1136 740
1137 740
1138 740
1139 740
1140 740
1141 740
1142 740
1143 740
1144 740
1145 740
1146 740
1147 740
1148 740
1149 740
1150 740
1151 740
1152 740
1153 740
1154 740
1155 740
1156 740
1157 740
1158 740
1159 740
1160 740
1161 740
1162 740
1163 740
1164 740
1165 740
1166 740
1167 740
1168 740
1169 740
1170 740
1171 740
1172 740
1173 740
1218 778
1219 778
1220 778
1221 778
1222 778
1223 778
1224 778
1225 778
1226 778
1227 778
1228 778
1229 778
1230 778
1231 778
1232 778
1233 778
1234 778
1235 778
1236 778
1237 778
1238 778
1239 778
1240 778
1241 778
1242 778
1243 778
1244 778
1245 778
1246 778
1247 778
1248 778
1249 778
1250 778
1251 778
1252 778
1253 778
1254 778
1255 778
1256 778
1257 778
1258 778
1259 778
1260 778
1261 778
1262 778
1263 778
1264 778
1265 778
1266 778
1267 778
1268 778
1269 778
1270 778
1271 778
1272 778
1273 778
1274 778
1275 778
1276 778
1277 778
1278 778
1279 778
1280 778
1281 778
1282 778
1283 778
1284 778
1285 778
1286 778
1287 778
1288 778
1289 778
1290 778
1291 778
1292 778
1293 778
1218 779
1219 779
1220 779
1221 779
1222 779
1223 779
1224 779
1225 779
1226 779
1227 779
1228 779
1229 779
1230 779
1231 779
1232 779
1233 779
1234 779
1235 779
1236 779
1237 779
1238 779
1239 779
1240 779
1241 779
1242 779
1243 779
1244 779
1245 779
1246 779
1247 779
1248 779
1249 779
1250 779
1251 779
1252 779
1253 779
1254 779
1255 779
1256 779
1257 779
1258 779
1259 779
1260 779
1261 779
1262 779
1263 779
1264 779
1265 779
1266 779
1267 779
1268 779
1269 779
1270 779
1271 779
1272 779
1273 779
1274 779
1275 779
1276 779
1277 779
1278 779
1279 779
1280 779
1281 779
1282 779
1283 779
1284 779
1285 779
1286 779
1287 779
1288 779
1289 779
1290 779
1291 779
1292 779
1293 779
1218 780
1219 780
1220 780
1221 780
1222 780
1223 780
1224 780
1225 780
1226 780
1227 780
1228 780
1229 780
1230 780
1231 780
1232 780
1233 780
1234 780
1235 780
1236 780
1237 780
1238 780
1239 780
1240 780
1241 780
1242 780
1243 780
1244 780
1245 780
1246 780
1247 780
1248 780
1249 780
1250 780
1251 780
1252 780
1253 780
1254 780
1255 780
1256 780
1257 780
1258 780
1259 780
1260 780
1261 780
1262 780
1263 780
1264 780
1265 780
1266 780
1267 780
1268 780
1269 780
1270 780
1271 780
1272 780
1273 780
1274 780
1275 780
1276 780
1277 780
1278 780
1279 780
1280 780
1281 780
1282 780
1283 780
1284 780
1285 780
1286 780
1287 780
1288 780
1289 780
1290 780
1291 780
1292 780
1293 780
1218 781
1219 781
1220 781
1221 781
1222 781
1223 781
1224 781
1225 781
1226 781
1227 781
1228 781
1229 781
1230 781
1231 781
1232 781
1233 781
1234 781
1235 781
1236 781
1237 781
1238 781
1239 781
1240 781
1241 781
1242 781
1243 781
1244 781
1245 781
1246 781
1247 781
1248 781
1249 781
1250 781
1251 781
1252 781
1253 781
1254 781
1255 781
1256 781
1257 781
1258 781
1259 781
1260 781
1261 781
1262 781
1263 781
1264 781
1265 781
1266 781
1267 781
1268 781
1269 781
1270 781
1271 781
1272 781
1273 781
1274 781
1275 781
1276 781
1277 781
1278 781
1279 781
1280 781
1281 781
1282 781
1283 781
1284 781
1285 781
1286 781
1287 781
1288 781
1289 781
1290 781
1291 781
1292 781
1293 781
1218 782
1219 782
1220 782
1221 782
1222 782
1223 782
1224 782
1225 782
1226 782
1227 782
1228 782
1229 782
1230 782
1231 782
1232 782
1233 782
1234 782
1235 782
1236 782
1237 782
1238 782
1239 782
1240 782
1241 782
1242 782
1243 782
1244 782
1245 782
1246 782
1247 782
1248 782
1249 782
1250 782
1251 782
1252 782
1253 782
1254 782
1255 782
1256 782
1257 782
1258 782
1259 782
1260 782
1261 782
1262 782
1263 782
1264 782
1265 782
1266 782
1267 782
1268 782
1269 782
1270 782
1271 782
1272 782
1273 782
1274 782
1275 782
1276 782
1277 782
1278 782
1279 782
1280 782
1281 782
1282 782
1283 782
1284 782
1285 782
1286 782
1287 782
1288 782
1289 782
1290 782
1291 782
1292 782
1293 782
1218 783
1219 783
1220 783
1221 783
1222 783
1223 783
1224 783
1225 783
1226 783
1227 783
1228 783
1229 783
1230 783
1231 783
1232 783
1233 783
1234 783
1235 783
1236 783
1237 783
1238 783
1239 783
1240 783
1241 783
1242 783
1243 783
1244 783
1245 783
1246 783
1247 783
1248 783
1249 783
1250 783
1251 783
1252 783
1253 783
1254 783
1255 783
1256 783
1257 783
1258 783
1259 783
1260 783
1261 783
1262 783
1263 783
1264 783
1265 783
1266 783
1267 783
1268 783
1269 783
1270 783
1271 783
1272 783
1273 783
1274 783
1275 783
1276 783
1277 783
1278 783
1279 783
1280 783
1281 783
1282 783
1283 783
1284 783
1285 783
1286 783
1287 783
1288 783
1289 783
1290 783
1291 783
1292 783
1293 783
1218 784
1219 784
1220 784
1221 784
1222 784
1223 784
1224 784
1225 784
1226 784
1227 784
1228 784
1229 784
1230 784
1231 784
1232 784
1233 784
1234 784
1235 784
1236 784
1237 784
1238 784
1239 784
1240 784
1241 784
1242 784
1243 784
1244 784
1245 784
1246 784
1247 784
1248 784
1249 784
1250 784
1251 784
1252 784
1253 784
1254 784
1255 784
1256 784
1257 784
1258 784
1259 784
1260 784
1261 784
1262 784
1263 784
1264 784
1265 784
1266 784
1267 784
1268 784
1269 784
1270 784
1271 784
1272 784
1273 784
1274 784
1275 784
1276 784
1277 784
1278 784
1279 784
1280 784
1281 784
1282 784
1283 784
1284 784
1285 784
1286 784
1287 784
1288 784
1289 784
1290 784
1291 784
1292 784
1293 784
1218 785
1219 785
1220 785
1221 785
1222 785
1223 785
1224 785
1225 785
1226 785
1227 785
1228 785
1229 785
1230 785
1231 785
1232 785
1233 785
1234 785
1235 785
1236 785
1237 785
1238 785
1239 785
1240 785
1241 785
1242 785
1243 785
1244 785
1245 785
1246 785
1247 785
1248 785
1249 785
1250 785
1251 785
1252 785
1253 785
1254 785
1255 785
1256 785
1257 785
1258 785
1259 785
1260 785
1261 785
1262 785
1263 785
1264 785
1265 785
1266 785
1267 785
1268 785
1269 785
1270 785
1271 785
1272 785
1273 785
1274 785
1275 785
1276 785
1277 785
1278 785
1279 785
1280 785
1281 785
1282 785
1283 785
1284 785
1285 785
1286 785
1287 785
1288 785
1289 785
1290 785
1291 785
1292 785
1293 785
1218 786
1219 786
1220 786
1221 786
1222 786
1223 786
1224 786
1225 786
1226 786
1227 786
1228 786
1229 786
1230 786
1231 786
1232 786
1233 786
1234 786
1235 786
1236 786
1237 786
1238 786
1239 786
1240 786
1241 786
1242 786
1243 786
1244 786
1245 786
1246 786
1247 786
1248 786
1249 786
1250 786
1251 786
1252 786
1253 786
1254 786
1255 786
1256 786
1257 786
1258 786
1259 786
1260 786
1261 786
1262 786
1263 786
1264 786
1265 786
1266 786
1267 786
1268 786
1269 786
1270 786
1271 786
1272 786
1273 786
1274 786
1275 786
1276 786
1277 786
1278 786
1279 786
1280 786
1281 786
1282 786
1283 786
1284 786
1285 786
1286 786
1287 786
1288 786
1289 786
1290 786
1291 786
1292 786
1293 786
1218 787
1219 787
1220 787
1221 787
1222 787
1223 787
1224 787
1225 787
1226 787
1227 787
1228 787
1229 787
1230 787
1231 787
1232 787
1233 787
1234 787
1235 787
1236 787
1237 787
1238 787
1239 787
1240 787
1241 787
1242 787
1243 787
1244 787
1245 787
1246 787
1247 787
1248 787
1249 787
1250 787
1251 787
1252 787
1253 787
1254 787
1255 787
1256 787
1257 787
1258 787
1259 787
1260 787
1261 787
1262 787
1263 787
1264 787
1265 787
1266 787
1267 787
1268 787
1269 787
1270 787
1271 787
1272 787
1273 787
1274 787
1275 787
1276 787
1277 787
1278 787
1279 787
1280 787
1281 787
1282 787
1283 787
1284 787
1285 787
1286 787
1287 787
1288 787
1289 787
1290 787
1291 787
1292 787
1293 787
1218 788
1219 788
1220 788
1221 788
1222 788
1223 788
1224 788
1225 788
1226 788
1227 788
1228 788
1229 788
1230 788
1231 788
1232 788
1233 788
1234 788
1235 788
1236 788
1237 788
1238 788
1239 788
1240 788
1241 788
1242 788
1243 788
1244 788
1245 788
1246 788
1247 788
1248 788
1249 788
1250 788
1251 788
1252 788
1253 788
1254 788
1255 788
1256 788
1257 788
1258 788
1259 788
1260 788
1261 788
1262 788
1263 788
1264 788
1265 788
1266 788
1267 788
1268 788
1269 788
1270 788
1271 788
1272 788
1273 788
1274 788
1275 788
1276 788
1277 788
1278 788
1279 788
1280 788
1281 788
1282 788
1283 788
1284 788
1285 788
1286 788
1287 788
1288 788
1289 788
1290 788
1291 788
1292 788
1293 788
1218 789
1219 789
1220 789
1221 789
1222 789
1223 789
1224 789
1225 789
1226 789
1227 789
1228 789
1229 789
1230 789
1231 789
1232 789
1233 789
1234 789
1235 789
1236 789
1237 789
1238 789
1239 789
1240 789
1241 789
1242 789
1243 789
1244 789
1245 789
1246 789
1247 789
1248 789
1249 789
1250 789
1251 789
1252 789
1253 789
1254 789
1255 789
1256 789
1257 789
1258 789
1259 789
1260 789
1261 789
1262 789
1263 789
1264 789
1265 789
1266 789
1267 789
1268 789
1269 789
1270 789
1271 789
1272 789
1273 789
1274 789
1275 789
1276 789
1277 789
1278 789
1279 789
1280 789
1281 789
1282 789
1283 789
1284 789
1285 789
1286 789
1287 789
1288 789
1289 789
1290 789
1291 789
1292 789
1293 789
1218 790
1219 790
1220 790
1221 790
1222 790
1223 790
1224 790
1225 790
1226 790
1227 790
1228 790
1229 790
1230 790
1231 790
1232 790
1233 790
1234 790
1235 790
1236 790
1237 790
1238 790
1239 790
1240 790
1241 790
1242 790
1243 790
1244 790
1245 790
1246 790
1247 790
1248 790
1249 790
1250 790
1251 790
1252 790
1253 790
1254 790
1255 790
1256 790
1257 790
1258 790
1259 790
1260 790
1261 790
1262 790
1263 790
1264 790
1265 790
1266 790
1267 790
1268 790
1269 790
1270 790
1271 790
1272 790
1273 790
1274 790
1275 790
1276 790
1277 790
1278 790
1279 790
1280 790
1281 790
1282 790
1283 790
1284 790
1285 790
1286 790
1287 790
1288 790
1289 790
1290 790
1291 790
1292 790
1293 790
1218 791
1219 791
1220 791
1221 791
1222 791
1223 791
1224 791
1225 791
1226 791
1227 791
1228 791
1229 791
1230 791
1231 791
1232 791
1233 791
1234 791
1235 791
1236 791
1237 791
1238 791
1239 791
1240 791
1241 791
1242 791
1243 791
1244 791
1245 791
1246 791
1247 791
1248 791
1249 791
1250 791
1251 791
1252 791
1253 791
1254 791
1255 791
1256 791
1257 791
1258 791
1259 791
1260 791
1261 791
1262 791
1263 791
1264 791
1265 791
1266 791
1267 791
1268 791
1269 791
1270 791
1271 791
1272 791
1273 791
1274 791
1275 791
1276 791
1277 791
1278 791
1279 791
1280 791
1281 791
1282 791
1283 791
1284 791
1285 791
1286 791
1287 791
1288 791
1289 791
1290 791
1291 791
1292 791
1293 791
1218 792
1219 792
1220 792
1221 792
1222 792
1223 792
1224 792
1225 792
1226 792
1227 792
1228 792
1229 792
1230 792
1231 792
1232 792
1233 792
1234 792
1235 792
1236 792
1237 792
1238 792
1239 792
1240 792
1241 792
1242 792
1243 792
1244 792
1245 792
1246 792
1247 792
1248 792
1249 792
1250 792
1251 792
1252 792
1253 792
1254 792
1255 792
1256 792
1257 792
1258 792
1259 792
1260 792
1261 792
1262 792
1263 792
1264 792
1265 792
1266 792
1267 792
1268 792
1269 792
1270 792
1271 792
1272 792
1273 792
1274 792
1275 792
1276 792
1277 792
1278 792
1279 792
1280 792
1281 792
1282 792
1283 792
1284 792
1285 792
1286 792
1287 792
1288 792
1289 792
1290 792
1291 792
1292 792
1293 792
1218 793
1219 793
1220 793
1221 793
1222 793
1223 793
1224 793
1225 793
1226 793
1227 793
1228 793
1229 793
1230 793
1231 793
1232 793
1233 793
1234 793
1235 793
1236 793
1237 793
1238 793
1239 793
1240 793
1241 793
1242 793
1243 793
1244 793
1245 793
1246 793
1247 793
1248 793
1249 793
1250 793
1251 793
1252 793
1253 793
1254 793
1255 793
1256 793
1257 793
1258 793
1259 793
1260 793
1261 793
1262 793
1263 793
1264 793
1265 793
1266 793
1267 793
1268 793
1269 793
1270 793
1271 793
1272 793
1273 793
1274 793
1275 793
1276 793
1277 793
1278 793
1279 793
1280 793
1281 793
1282 793
1283 793
1284 793
1285 793
1286 793
1287 793
1288 793
1289 793
1290 793
1291 793
1292 793
1293 793
1218 794
1219 794
1220 794
1221 794
1222 794
1223 794
1224 794
1225 794
1226 794
1227 794
1228 794
1229 794
1230 794
1231 794
1232 794
1233 794
1234 794
1235 794
1236 794
1237 794
1238 794
1239 794
1240 794
1241 794
1242 794
1243 794
1244 794
1245 794
1246 794
1247 794
1248 794
1249 794
1250 794
1251 794
1252 794
1253 794
1254 794
1255 794
1256 794
1257 794
1258 794
1259 794
1260 794
1261 794
1262 794
1263 794
1264 794
1265 794
1266 794
1267 794
1268 794
1269 794
1270 794
1271 794
1272 794
1273 794
1274 794
1275 794
1276 794
1277 794
1278 794
1279 794
1280 794
1281 794
1282 794
1283 794
1284 794
1285 794
1286 794
1287 794
1288 794
1289 794
1290 794
1291 794
1292 794
1293 794
1218 795
1219 795
1220 795
1221 795
1222 795
1223 795
1224 795
1225 795
1226 795
1227 795
1228 795
1229 795
1230 795
1231 795
1232 795
1233 795
1234 795
1235 795
1236 795
1237 795
1238 795
1239 795
1240 795
1241 795
1242 795
1243 795
1244 795
1245 795
1246 795
1247 795
1248 795
1249 795
1250 795
1251 795
1252 795
1253 795
1254 795
1255 795
1256 795
1257 795
1258 795
1259 795
1260 795
1261 795
1262 795
1263 795
1264 795
1265 795
1266 795
1267 795
1268 795
1269 795
1270 795
1271 795
1272 795
1273 795
1274 795
1275 795
1276 795
1277 795
1278 795
1279 795
1280 795
1281 795
1282 795
1283 795
1284 795
1285 795
1286 795
1287 795
1288 795
1289 795
1290 795
1291 795
1292 795
1293 795
1218 796
1219 796
1220 796
1221 796
1222 796
1223 796
1224 796
1225 796
1226 796
1227 796
1228 796
1229 796
1230 796
1231 796
1232 796
1233 796
1234 796
1235 796
1236 796
1237 796
1238 796
1239 796
1240 796
1241 796
1242 796
1243 796
1244 796
1245 796
1246 796
1247 796
1248 796
1249 796
1250 796
1251 796
1252 796
1253 796
1254 796
1255 796
1256 796
1257 796
1258 796
1259 796
1260 796
1261 796
1262 796
1263 796
1264 796
1265 796
1266 796
1267 796
1268 796
1269 796
1270 796
1271 796
1272 796
1273 796
1274 796
1275 796
1276 796
1277 796
1278 796
1279 796
1280 796
1281 796
1282 796
1283 796
1284 796
1285 796
1286 796
1287 796
1288 796
1289 796
1290 796
1291 796
1292 796
1293 796
1218 797
1219 797
1220 797
1221 797
1222 797
1223 797
1224 797
1225 797
1226 797
1227 797
1228 797
1229 797
1230 797
1231 797
1232 797
1233 797
1234 797
1235 797
1236 797
1237 797
1238 797
1239 797
1240 797
1241 797
1242 797
1243 797
1244 797
1245 797
1246 797
1247 797
1248 797
1249 797
1250 797
1251 797
1252 797
1253 797
1254 797
1255 797
1256 797
1257 797
1258 797
1259 797
1260 797
1261 797
1262 797
1263 797
1264 797
1265 797
1266 797
1267 797
1268 797
1269 797
1270 797
1271 797
1272 797
1273 797
1274 797
1275 797
1276 797
1277 797
1278 797
1279 797
1280 797
1281 797
1282 797
1283 797
1284 797
1285 797
1286 797
1287 797
1288 797
1289 797
1290 797
1291 797
1292 797
1293 797
1218 798
1219 798
1220 798
1221 798
1222 798
1223 798
1224 798
1225 798
1226 798
1227 798
1228 798
1229 798
1230 798
1231 798
1232 798
1233 798
1234 798
1235 798
1236 798
1237 798
1238 798
1239 798
1240 798
1241 798
1242 798
1243 798
1244 798
1245 798
1246 798
1247 798
1248 798
1249 798
1250 798
1251 798
1252 798
1253 798
1254 798
1255 798
1256 798
1257 798
1258 798
1259 798
1260 798
1261 798
1262 798
1263 798
1264 798
1265 798
1266 798
1267 798
1268 798
1269 798
1270 798
1271 798
1272 798
1273 798
1274 798
1275 798
1276 798
1277 798
1278 798
1279 798
1280 798
1281 798
1282 798
1283 798
1284 798
1285 798
1286 798
1287 798
1288 798
1289 798
1290 798
1291 798
1292 798
1293 798
1218 799
1219 799
1220 799
1221 799
1222 799
1223 799
1224 799
1225 799
1226 799
1227 799
1228 799
1229 799
1230 799
1231 799
1232 799
1233 799
1234 799
1235 799
1236 799
1237 799
1238 799
1239 799
1240 799
1241 799
1242 799
1243 799
1244 799
1245 799
1246 799
1247 799
1248 799
1249 799
1250 799
1251 799
1252 799
1253 799
1254 799
1255 799
1256 799
1257 799
1258 799
1259 799
1260 799
1261 799
1262 799
1263 799
1264 799
1265 799
1266 799
1267 799
1268 799
1269 799
1270 799
1271 799
1272 799
1273 799
1274 799
1275 799
1276 799
1277 799
1278 799
1279 799
1280 799
1281 799
1282 799
1283 799
1284 799
1285 799
1286 799
1287 799
1288 799
1289 799
1290 799
1291 799
1292 799
1293 799
1218 800
1219 800
1220 800
1221 800
1222 800
1223 800
1224 800
1225 800
1226 800
1227 800
1228 800
1229 800
1230 800
1231 800
1232 800
1233 800
1234 800
1235 800
1236 800
1237 800
1238 800
1239 800
1240 800
1241 800
1242 800
1243 800
1244 800
1245 800
1246 800
1247 800
1248 800
1249 800
1250 800
1251 800
1252 800
1253 800
1254 800
1255 800
1256 800
1257 800
1258 800
1259 800
1260 800
1261 800
1262 800
1263 800
1264 800
1265 800
1266 800
1267 800
1268 800
1269 800
1270 800
1271 800
1272 800
1273 800
1274 800
1275 800
1276 800
1277 800
1278 800
1279 800
1280 800
1281 800
1282 800
1283 800
1284 800
1285 800
1286 800
1287 800
1288 800
1289 800
1290 800
1291 800
1292 800
1293 800
1218 801
1219 801
1220 801
1221 801
1222 801
1223 801
1224 801
1225 801
1226 801
1227 801
1228 801
1229 801
1230 801
1231 801
1232 801
1233 801
1234 801
1235 801
1236 801
1237 801
1238 801
1239 801
1240 801
1241 801
1242 801
1243 801
1244 801
1245 801
1246 801
1247 801
1248 801
1249 801
1250 801
1251 801
1252 801
1253 801
1254 801
1255 801
1256 801
1257 801
1258 801
1259 801
1260 801
1261 801
1262 801
1263 801
1264 801
1265 801
1266 801
1267 801
1268 801
1269 801
1270 801
1271 801
1272 801
1273 801
1274 801
1275 801
1276 801
1277 801
1278 801
1279 801
1280 801
1281 801
1282 801
1283 801
1284 801
1285 801
1286 801
1287 801
1288 801
1289 801
1290 801
1291 801
1292 801
1293 801
1218 802
1219 802
1220 802
1221 802
1222 802
1223 802
1224 802
1225 802
1226 802
1227 802
1228 802
1229 802
1230 802
1231 802
1232 802
1233 802
1234 802
1235 802
1236 802
1237 802
1238 802
1239 802
1240 802
1241 802
1242 802
1243 802
1244 802
1245 802
1246 802
1247 802
1248 802
1249 802
1250 802
1251 802
1252 802
1253 802
1254 802
1255 802
1256 802
1257 802
1258 802
1259 802
1260 802
1261 802
1262 802
1263 802
1264 802
1265 802
1266 802
1267 802
1268 802
1269 802
1270 802
1271 802
1272 802
1273 802
1274 802
1275 802
1276 802
1277 802
1278 802
1279 802
1280 802
1281 802
1282 802
1283 802
1284 802
1285 802
1286 802
1287 802
1288 802
1289 802
1290 802
1291 802
1292 802
1293 802
1218 803
1219 803
1220 803
1221 803
1222 803
1223 803
1224 803
1225 803
1226 803
1227 803
1228 803
1229 803
1230 803
1231 803
1232 803
1233 803
1234 803
1235 803
1236 803
1237 803
1238 803
1239 803
1240 803
1241 803
1242 803
1243 803
1244 803
1245 803
1246 803
1247 803
1248 803
1249 803
1250 803
1251 803
1252 803
1253 803
1254 803
1255 803
1256 803
1257 803
1258 803
1259 803
1260 803
1261 803
1262 803
1263 803
1264 803
1265 803
1266 803
1267 803
1268 803
1269 803
1270 803
1271 803
1272 803
1273 803
1274 803
1275 803
1276 803
1277 803
1278 803
1279 803
1280 803
1281 803
1282 803
1283 803
1284 803
1285 803
1286 803
1287 803
1288 803
1289 803
1290 803
1291 803
1292 803
1293 803
1218 804
1219 804
1220 804
1221 804
1222 804
1223 804
1224 804
1225 804
1226 804
1227 804
1228 804
1229 804
1230 804
1231 804
1232 804
1233 804
1234 804
1235 804
1236 804
1237 804
1238 804
1239 804
1240 804
1241 804
1242 804
1243 804
1244 804
1245 804
1246 804
1247 804
1248 804
1249 804
1250 804
1251 804
1252 804
1253 804
1254 804
1255 804
1256 804
1257 804
1258 804
1259 804
1260 804
1261 804
1262 804
1263 804
1264 804
1265 804
1266 804
1267 804
1268 804
1269 804
1270 804
1271 804
1272 804
1273 804
1274 804
1275 804
1276 804
1277 804
1278 804
1279 804
1280 804
1281 804
1282 804
1283 804
1284 804
1285 804
1286 804
1287 804
1288 804
1289 804
1290 804
1291 804
1292 804
1293 804
1218 805
1219 805
1220 805
1221 805
1222 805
1223 805
1224 805
1225 805
1226 805
1227 805
1228 805
1229 805
1230 805
1231 805
1232 805
1233 805
1234 805
1235 805
1236 805
1237 805
1238 805
1239 805
1240 805
1241 805
1242 805
1243 805
1244 805
1245 805
1246 805
1247 805
1248 805
1249 805
1250 805
1251 805
1252 805
1253 805
1254 805
1255 805
1256 805
1257 805
1258 805
1259 805
1260 805
1261 805
1262 805
1263 805
1264 805
1265 805
1266 805
1267 805
1268 805
1269 805
1270 805
1271 805
1272 805
1273 805
1274 805
1275 805
1276 805
1277 805
1278 805
1279 805
1280 805
1281 805
1282 805
1283 805
1284 805
1285 805
1286 805
1287 805
1288 805
1289 805
1290 805
1291 805
1292 805
1293 805
1218 806
1219 806
1220 806
1221 806
1222 806
1223 806
1224 806
1225 806
1226 806
1227 806
1228 806
1229 806
1230 806
1231 806
1232 806
1233 806
1234 806
1235 806
1236 806
1237 806
1238 806
1239 806
1240 806
1241 806
1242 806
1243 806
1244 806
1245 806
1246 806
1247 806
1248 806
1249 806
1250 806
1251 806
1252 806
1253 806
1254 806
1255 806
1256 806
1257 806
1258 806
1259 806
1260 806
1261 806
1262 806
1263 806
1264 806
1265 806
1266 806
1267 806
1268 806
1269 806
1270 806
1271 806
1272 806
1273 806
1274 806
1275 806
1276 806
1277 806
1278 806
1279 806
1280 806
1281 806
1282 806
1283 806
1284 806
1285 806
1286 806
1287 806
1288 806
1289 806
1290 806
1291 806
1292 806
1293 806
1218 807
1219 807
1220 807
1221 807
1222 807
1223 807
1224 807
1225 807
1226 807
1227 807
1228 807
1229 807
1230 807
1231 807
1232 807
1233 807
1234 807
1235 807
1236 807
1237 807
1238 807
1239 807
1240 807
1241 807
1242 807
1243 807
1244 807
1245 807
1246 807
1247 807
1248 807
1249 807
1250 807
1251 807
1252 807
1253 807
1254 807
1255 807
1256 807
1257 807
1258 807
1259 807
1260 807
1261 807
1262 807
1263 807
1264 807
1265 807
1266 807
1267 807
1268 807
1269 807
1270 807
1271 807
1272 807
1273 807
1274 807
1275 807
1276 807
1277 807
1278 807
1279 807
1280 807
1281 807
1282 807
1283 807
1284 807
1285 807
1286 807
1287 807
1288 807
1289 807
1290 807
1291 807
1292 807
1293 807
1218 808
1219 808
1220 808
1221 808
1222 808
1223 808
1224 808
1225 808
1226 808
1227 808
1228 808
1229 808
1230 808
1231 808
1232 808
1233 808
1234 808
1235 808
1236 808
1237 808
1238 808
1239 808
1240 808
1241 808
1242 808
1243 808
1244 808
1245 808
1246 808
1247 808
1248 808
1249 808
1250 808
1251 808
1252 808
1253 808
1254 808
1255 808
1256 808
1257 808
1258 808
1259 808
1260 808
1261 808
1262 808
1263 808
1264 808
1265 808
1266 808
1267 808
1268 808
1269 808
1270 808
1271 808
1272 808
1273 808
1274 808
1275 808
1276 808
1277 808
1278 808
1279 808
1280 808
1281 808
1282 808
1283 808
1284 808
1285 808
1286 808
1287 808
1288 808
1289 808
1290 808
1291 808
1292 808
1293 808
1218 809
1219 809
1220 809
1221 809
1222 809
1223 809
1224 809
1225 809
1226 809
1227 809
1228 809
1229 809
1230 809
1231 809
1232 809
1233 809
1234 809
1235 809
1236 809
1237 809
1238 809
1239 809
1240 809
1241 809
1242 809
1243 809
1244 809
1245 809
1246 809
1247 809
1248 809
1249 809
1250 809
1251 809
1252 809
1253 809
1254 809
1255 809
1256 809
1257 809
1258 809
1259 809
1260 809
1261 809
1262 809
1263 809
1264 809
1265 809
1266 809
1267 809
1268 809
1269 809
1270 809
1271 809
1272 809
1273 809
1274 809
1275 809
1276 809
1277 809
1278 809
1279 809
1280 809
1281 809
1282 809
1283 809
1284 809
1285 809
1286 809
1287 809
1288 809
1289 809
1290 809
1291 809
1292 809
1293 809
1218 810
1219 810
1220 810
1221 810
1222 810
1223 810
1224 810
1225 810
1226 810
1227 810
1228 810
1229 810
1230 810
1231 810
1232 810
1233 810
1234 810
1235 810
1236 810
1237 810
1238 810
1239 810
1240 810
1241 810
1242 810
1243 810
1244 810
1245 810
1246 810
1247 810
1248 810
1249 810
1250 810
1251 810
1252 810
1253 810
1254 810
1255 810
1256 810
1257 810
1258 810
1259 810
1260 810
1261 810
1262 810
1263 810
1264 810
1265 810
1266 810
1267 810
1268 810
1269 810
1270 810
1271 810
1272 810
1273 810
1274 810
1275 810
1276 810
1277 810
1278 810
1279 810
1280 810
1281 810
1282 810
1283 810
1284 810
1285 810
1286 810
1287 810
1288 810
1289 810
1290 810
1291 810
1292 810
1293 810
1218 811
1219 811
1220 811
1221 811
1222 811
1223 811
1224 811
1225 811
1226 811
1227 811
1228 811
1229 811
1230 811
1231 811
1232 811
1233 811
1234 811
1235 811
1236 811
1237 811
1238 811
1239 811
1240 811
1241 811
1242 811
1243 811
1244 811
1245 811
1246 811
1247 811
1248 811
1249 811
1250 811
1251 811
1252 811
1253 811
1254 811
1255 811
1256 811
1257 811
1258 811
1259 811
1260 811
1261 811
1262 811
1263 811
1264 811
1265 811
1266 811
1267 811
1268 811
1269 811
1270 811
1271 811
1272 811
1273 811
1274 811
1275 811
1276 811
1277 811
1278 811
1279 811
1280 811
1281 811
1282 811
1283 811
1284 811
1285 811
1286 811
1287 811
1288 811
1289 811
1290 811
1291 811
1292 811
1293 811
1218 812
1219 812
1220 812
1221 812
1222 812
1223 812
1224 812
1225 812
1226 812
1227 812
1228 812
1229 812
1230 812
1231 812
1232 812
1233 812
1234 812
1235 812
1236 812
1237 812
1238 812
1239 812
1240 812
1241 812
1242 812
1243 812
1244 812
1245 812
1246 812
1247 812
1248 812
1249 812
1250 812
1251 812
1252 812
1253 812
1254 812
1255 812
1256 812
1257 812
1258 812
1259 812
1260 812
1261 812
1262 812
1263 812
1264 812
1265 812
1266 812
1267 812
1268 812
1269 812
1270 812
1271 812
1272 812
1273 812
1274 812
1275 812
1276 812
1277 812
1278 812
1279 812
1280 812
1281 812
1282 812
1283 812
1284 812
1285 812
1286 812
1287 812
1288 812
1289 812
1290 812
1291 812
1292 812
1293 812
1218 813
1219 813
1220 813
1221 813
1222 813
1223 813
1224 813
1225 813
1226 813
1227 813
1228 813
1229 813
1230 813
1231 813
1232 813
1233 813
1234 813
1235 813
1236 813
1237 813
1238 813
1239 813
1240 813
1241 813
1242 813
1243 813
1244 813
1245 813
1246 813
1247 813
1248 813
1249 813
1250 813
1251 813
1252 813
1253 813
1254 813
1255 813
1256 813
1257 813
1258 813
1259 813
1260 813
1261 813
1262 813
1263 813
1264 813
1265 813
1266 813
1267 813
1268 813
1269 813
1270 813
1271 813
1272 813
1273 813
1274 813
1275 813
1276 813
1277 813
1278 813
1279 813
1280 813
1281 813
1282 813
1283 813
1284 813
1285 813
1286 813
1287 813
1288 813
1289 813
1290 813
1291 813
1292 813
1293 813
1218 814
1219 814
1220 814
1221 814
1222 814
1223 814
1224 814
1225 814
1226 814
1227 814
1228 814
1229 814
1230 814
1231 814
1232 814
1233 814
1234 814
1235 814
1236 814
1237 814
1238 814
1239 814
1240 814
1241 814
1242 814
1243 814
1244 814
1245 814
1246 814
1247 814
1248 814
1249 814
1250 814
1251 814
1252 814
1253 814
1254 814
1255 814
1256 814
1257 814
1258 814
1259 814
1260 814
1261 814
1262 814
1263 814
1264 814
1265 814
1266 814
1267 814
1268 814
1269 814
1270 814
1271 814
1272 814
1273 814
1274 814
1275 814
1276 814
1277 814
1278 814
1279 814
1280 814
1281 814
1282 814
1283 814
1284 814
1285 814
1286 814
1287 814
1288 814
1289 814
1290 814
1291 814
1292 814
1293 814
1218 815
1219 815
1220 815
1221 815
1222 815
1223 815
1224 815
1225 815
1226 815
1227 815
1228 815
1229 815
1230 815
1231 815
1232 815
1233 815
1234 815
1235 815
1236 815
1237 815
1238 815
1239 815
1240 815
1241 815
1242 815
1243 815
1244 815
1245 815
1246 815
1247 815
1248 815
1249 815
1250 815
1251 815
1252 815
1253 815
1254 815
1255 815
1256 815
1257 815
1258 815
1259 815
1260 815
1261 815
1262 815
1263 815
1264 815
1265 815
1266 815
1267 815
1268 815
1269 815
1270 815
1271 815
1272 815
1273 815
1274 815
1275 815
1276 815
1277 815
1278 815
1279 815
1280 815
1281 815
1282 815
1283 815
1284 815
1285 815
1286 815
1287 815
1288 815
1289 815
1290 815
1291 815
1292 815
1293 815
1218 816
1219 816
1220 816
1221 816
1222 816
1223 816
1224 816
1225 816
1226 816
1227 816
1228 816
1229 816
1230 816
1231 816
1232 816
1233 816
1234 816
1235 816
1236 816
1237 816
1238 816
1239 816
1240 816
1241 816
1242 816
1243 816
1244 816
1245 816
1246 816
1247 816
1248 816
1249 816
1250 816
1251 816
1252 816
1253 816
1254 816
1255 816
1256 816
1257 816
1258 816
1259 816
1260 816
1261 816
1262 816
1263 816
1264 816
1265 816
1266 816
1267 816
1268 816
1269 816
1270 816
1271 816
1272 816
1273 816
1274 816
1275 816
1276 816
1277 816
1278 816
1279 816
1280 816
1281 816
1282 816
1283 816
1284 816
1285 816
1286 816
1287 816
1288 816
1289 816
1290 816
1291 816
1292 816
1293 816
1218 817
1219 817
1220 817
1221 817
1222 817
1223 817
1224 817
1225 817
1226 817
1227 817
1228 817
1229 817
1230 817
1231 817
1232 817
1233 817
1234 817
1235 817
1236 817
1237 817
1238 817
1239 817
1240 817
1241 817
1242 817
1243 817
1244 817
1245 817
1246 817
1247 817
1248 817
1249 817
1250 817
1251 817
1252 817
1253 817
1254 817
1255 817
1256 817
1257 817
1258 817
1259 817
1260 817
1261 817
1262 817
1263 817
1264 817
1265 817
1266 817
1267 817
1268 817
1269 817
1270 817
1271 817
1272 817
1273 817
1274 817
1275 817
1276 817
1277 817
1278 817
1279 817
1280 817
1281 817
1282 817
1283 817
1284 817
1285 817
1286 817
1287 817
1288 817
1289 817
1290 817
1291 817
1292 817
1293 817
1218 818
1219 818
1220 818
1221 818
1222 818
1223 818
1224 818
1225 818
1226 818
1227 818
1228 818
1229 818
1230 818
1231 818
1232 818
1233 818
1234 818
1235 818
1236 818
1237 818
1238 818
1239 818
1240 818
1241 818
1242 818
1243 818
1244 818
1245 818
1246 818
1247 818
1248 818
1249 818
1250 818
1251 818
1252 818
1253 818
1254 818
1255 818
1256 818
1257 818
1258 818
1259 818
1260 818
1261 818
1262 818
1263 818
1264 818
1265 818
1266 818
1267 818
1268 818
1269 818
1270 818
1271 818
1272 818
1273 818
1274 818
1275 818
1276 818
1277 818
1278 818
1279 818
1280 818
1281 818
1282 818
1283 818
1284 818
1285 818
1286 818
1287 818
1288 818
1289 818
1290 818
1291 818
1292 818
1293 818
1218 819
1219 819
1220 819
1221 819
1222 819
1223 819
1224 819
1225 819
1226 819
1227 819
1228 819
1229 819
1230 819
1231 819
1232 819
1233 819
1234 819
1235 819
1236 819
1237 819
1238 819
1239 819
1240 819
1241 819
1242 819
1243 819
1244 819
1245 819
1246 819
1247 819
1248 819
1249 819
1250 819
1251 819
1252 819
1253 819
1254 819
1255 819
1256 819
1257 819
1258 819
1259 819
1260 819
1261 819
1262 819
1263 819
1264 819
1265 819
1266 819
1267 819
1268 819
1269 819
1270 819
1271 819
1272 819
1273 819
1274 819
1275 819
1276 819
1277 819
1278 819
1279 819
1280 819
1281 819
1282 819
1283 819
1284 819
1285 819
1286 819
1287 819
1288 819
1289 819
1290 819
1291 819
1292 819
1293 819
1218 820
1219 820
1220 820
1221 820
1222 820
1223 820
1224 820
1225 820
1226 820
1227 820
1228 820
1229 820
1230 820
1231 820
1232 820
1233 820
1234 820
1235 820
1236 820
1237 820
1238 820
1239 820
1240 820
1241 820
1242 820
1243 820
1244 820
1245 820
1246 820
1247 820
1248 820
1249 820
1250 820
1251 820
1252 820
1253 820
1254 820
1255 820
1256 820
1257 820
1258 820
1259 820
1260 820
1261 820
1262 820
1263 820
1264 820
1265 820
1266 820
1267 820
1268 820
1269 820
1270 820
1271 820
1272 820
1273 820
1274 820
1275 820
1276 820
1277 820
1278 820
1279 820
1280 820
1281 820
1282 820
1283 820
1284 820
1285 820
1286 820
1287 820
1288 820
1289 820
1290 820
1291 820
1292 820
1293 820
1218 821
1219 821
1220 821
1221 821
1222 821
1223 821
1224 821
1225 821
1226 821
1227 821
1228 821
1229 821
1230 821
1231 821
1232 821
1233 821
1234 821
1235 821
1236 821
1237 821
1238 821
1239 821
1240 821
1241 821
1242 821
1243 821
1244 821
1245 821
1246 821
1247 821
1248 821
1249 821
1250 821
1251 821
1252 821
1253 821
1254 821
1255 821
1256 821
1257 821
1258 821
1259 821
1260 821
1261 821
1262 821
1263 821
1264 821
1265 821
1266 821
1267 821
1268 821
1269 821
1270 821
1271 821
1272 821
1273 821
1274 821
1275 821
1276 821
1277 821
1278 821
1279 821
1280 821
1281 821
1282 821
1283 821
1284 821
1285 821
1286 821
1287 821
1288 821
1289 821
1290 821
1291 821
1292 821
1293 821
1338 859
1339 859
1340 859
1341 859
1342 859
1343 859
1344 859
1345 859
1346 859
1347 859
1348 859
1349 859
1350 859
1351 859
1352 859
1353 859
1354 859
1355 859
1356 859
1357 859
1358 859
1359 859
1360 859
1361 859
1362 859
1363 859
1364 859
1365 859
1366 859
1367 859
1368 859
1369 859
1370 859
1371 859
1372 859
1373 859
1374 859
1375 859
1376 859
1377 859
1378 859
1379 859
1380 859
1381 859
1382 859
1383 859
1384 859
1385 859
1386 859
1387 859
1388 859
1389 859
1390 859
1391 859
1392 859
1393 859
1394 859
1395 859
1396 859
1397 859
1398 859
1399 859
1400 859
1401 859
1402 859
1403 859
1404 859
1405 859
1406 859
1407 859
1408 859
1409 859
1410 859
1411 859
1412 859
1413 859
1338 860
1339 860
1340 860
1341 860
1342 860
1343 860
1344 860
1345 860
1346 860
1347 860
1348 860
1349 860
1350 860
1351 860
1352 860
1353 860
1354 860
1355 860
1356 860
1357 860
1358 860
1359 860
1360 860
1361 860
1362 860
1363 860
1364 860
1365 860
1366 860
1367 860
1368 860
1369 860
1370 860
1371 860
1372 860
1373 860
1374 860
1375 860
1376 860
1377 860
1378 860
1379 860
1380 860
1381 860
1382 860
1383 860
1384 860
1385 860
1386 860
1387 860
1388 860
1389 860
1390 860
1391 860
1392 860
1393 860
1394 860
1395 860
1396 860
1397 860
1398 860
1399 860
1400 860
1401 860
1402 860
1403 860
1404 860
1405 860
1406 860
1407 860
1408 860
1409 860
1410 860
1411 860
1412 860
1413 860
1338 861
1339 861
1340 861
1341 861
1342 861
1343 861
1344 861
1345 861
1346 861
1347 861
1348 861
1349 861
1350 861
1351 861
1352 861
1353 861
1354 861
1355 861
1356 861
1357 861
1358 861
1359 861
1360 861
1361 861
1362 861
1363 861
1364 861
1365 861
1366 861
1367 861
1368 861
1369 861
1370 861
1371 861
1372 861
1373 861
1374 861
1375 861
1376 861
1377 861
1378 861
1379 861
1380 861
1381 861
1382 861
1383 861
1384 861
1385 861
1386 861
1387 861
1388 861
1389 861
1390 861
1391 861
1392 861
1393 861
1394 861
1395 861
1396 861
1397 861
1398 861
1399 861
1400 861
1401 861
1402 861
1403 861
1404 861
1405 861
1406 861
1407 861
1408 861
1409 861
1410 861
1411 861
1412 861
1413 861
1338 862
1339 862
1340 862
1341 862
1342 862
1343 862
1344 862
1345 862
1346 862
1347 862
1348 862
1349 862
1350 862
1351 862
1352 862
1353 862
1354 862
1355 862
1356 862
1357 862
1358 862
1359 862
1360 862
1361 862
1362 862
1363 862
1364 862
1365 862
1366 862
1367 862
1368 862
1369 862
1370 862
1371 862
1372 862
1373 862
1374 862
1375 862
1376 862
1377 862
1378 862
1379 862
1380 862
1381 862
1382 862
1383 862
1384 862
1385 862
1386 862
1387 862
1388 862
1389 862
1390 862
1391 862
1392 862
1393 862
1394 862
1395 862
1396 862
1397 862
1398 862
1399 862
1400 862
1401 862
1402 862
1403 862
1404 862
1405 862
1406 862
1407 862
1408 862
1409 862
1410 862
1411 862
1412 862
1413 862
1338 863
1339 863
1340 863
1341 863
1342 863
1343 863
1344 863
1345 863
1346 863
1347 863
1348 863
1349 863
1350 863
1351 863
1352 863
1353 863
1354 863
1355 863
1356 863
1357 863
1358 863
1359 863
1360 863
1361 863
1362 863
1363 863
1364 863
1365 863
1366 863
1367 863
1368 863
1369 863
1370 863
1371 863
1372 863
1373 863
1374 863
1375 863
1376 863
1377 863
1378 863
1379 863
1380 863
1381 863
1382 863
1383 863
1384 863
1385 863
1386 863
1387 863
1388 863
1389 863
1390 863
1391 863
1392 863
1393 863
1394 863
1395 863
1396 863
1397 863
1398 863
1399 863
1400 863
1401 863
1402 863
1403 863
1404 863
1405 863
1406 863
1407 863
1408 863
1409 863
1410 863
1411 863
1412 863
1413 863
1338 864
1339 864
1340 864
1341 864
1342 864
1343 864
1344 864
1345 864
1346 864
1347 864
1348 864
1349 864
1350 864
1351 864
1352 864
1353 864
1354 864
1355 864
1356 864
1357 864
1358 864
1359 864
1360 864
1361 864
1362 864
1363 864
1364 864
1365 864
1366 864
1367 864
1368 864
1369 864
1370 864
1371 864
1372 864
1373 864
1374 864
1375 864
1376 864
1377 864
1378 864
1379 864
1380 864
1381 864
1382 864
1383 864
1384 864
1385 864
1386 864
1387 864
1388 864
1389 864
1390 864
1391 864
1392 864
1393 864
1394 864
1395 864
1396 864
1397 864
1398 864
1399 864
1400 864
1401 864
1402 864
1403 864
1404 864
1405 864
1406 864
1407 864
1408 864
1409 864
1410 864
1411 864
1412 864
1413 864
1338 865
1339 865
1340 865
1341 865
1342 865
1343 865
1344 865
1345 865
1346 865
1347 865
1348 865
1349 865
1350 865
1351 865
1352 865
1353 865
1354 865
1355 865
1356 865
1357 865
1358 865
1359 865
1360 865
1361 865
1362 865
1363 865
1364 865
1365 865
1366 865
1367 865
1368 865
1369 865
1370 865
1371 865
1372 865
1373 865
1374 865
1375 865
1376 865
1377 865
1378 865
1379 865
1380 865
1381 865
1382 865
1383 865
1384 865
1385 865
1386 865
1387 865
1388 865
1389 865
1390 865
1391 865
1392 865
1393 865
1394 865
1395 865
1396 865
1397 865
1398 865
1399 865
1400 865
1401 865
1402 865
1403 865
1404 865
1405 865
1406 865
1407 865
1408 865
1409 865
1410 865
1411 865
1412 865
1413 865
1338 866
1339 866
1340 866
1341 866
1342 866
1343 866
1344 866
1345 866
1346 866
1347 866
1348 866
1349 866
1350 866
1351 866
1352 866
1353 866
1354 866
1355 866
1356 866
1357 866
1358 866
1359 866
1360 866
1361 866
1362 866
1363 866
1364 866
1365 866
1366 866
1367 866
1368 866
1369 866
1370 866
1371 866
1372 866
1373 866
1374 866
1375 866
1376 866
1377 866
1378 866
1379 866
1380 866
1381 866
1382 866
1383 866
1384 866
1385 866
1386 866
1387 866
1388 866
1389 866
1390 866
1391 866
1392 866
1393 866
1394 866
1395 866
1396 866
1397 866
1398 866
1399 866
1400 866
1401 866
1402 866
1403 866
1404 866
1405 866
1406 866
1407 866
1408 866
1409 866
1410 866
1411 866
1412 866
1413 866
1338 867
1339 867
1340 867
1341 867
1342 867
1343 867
1344 867
1345 867
1346 867
1347 867
1348 867
1349 867
1350 867
1351 867
1352 867
1353 867
1354 867
1355 867
1356 867
1357 867
1358 867
1359 867
1360 867
1361 867
1362 867
1363 867
1364 867
1365 867
1366 867
1367 867
1368 867
1369 867
1370 867
1371 867
1372 867
1373 867
1374 867
1375 867
1376 867
1377 867
1378 867
1379 867
1380 867
1381 867
1382 867
1383 867
1384 867
1385 867
1386 867
1387 867
1388 867
1389 867
1390 867
1391 867
1392 867
1393 867
1394 867
1395 867
1396 867
1397 867
1398 867
1399 867
1400 867
1401 867
1402 867
1403 867
1404 867
1405 867
1406 867
1407 867
1408 867
1409 867
1410 867
1411 867
1412 867
1413 867
1338 868
1339 868
1340 868
1341 868
1342 868
1343 868
1344 868
1345 868
1346 868
1347 868
1348 868
1349 868
1350 868
1351 868
1352 868
1353 868
1354 868
1355 868
1356 868
1357 868
1358 868
1359 868
1360 868
1361 868
1362 868
1363 868
1364 868
1365 868
1366 868
1367 868
1368 868
1369 868
1370 868
1371 868
1372 868
1373 868
1374 868
1375 868
1376 868
1377 868
1378 868
1379 868
1380 868
1381 868
1382 868
1383 868
1384 868
1385 868
1386 868
1387 868
1388 868
1389 868
1390 868
1391 868
1392 868
1393 868
1394 868
1395 868
1396 868
1397 868
1398 868
1399 868
1400 868
1401 868
1402 868
1403 868
1404 868
1405 868
1406 868
1407 868
1408 868
1409 868
1410 868
1411 868
1412 868
1413 868
1338 869
1339 869
1340 869
1341 869
1342 869
1343 869
1344 869
1345 869
1346 869
1347 869
1348 869
1349 869
1350 869
1351 869
1352 869
1353 869
1354 869
1355 869
1356 869
1357 869
1358 869
1359 869
1360 869
1361 869
1362 869
1363 869
1364 869
1365 869
1366 869
1367 869
1368 869
1369 869
1370 869
1371 869
1372 869
1373 869
1374 869
1375 869
1376 869
1377 869
1378 869
1379 869
1380 869
1381 869
1382 869
1383 869
1384 869
1385 869
1386 869
1387 869
1388 869
1389 869
1390 869
1391 869
1392 869
1393 869
1394 869
1395 869
1396 869
1397 869
1398 869
1399 869
1400 869
1401 869
1402 869
1403 869
1404 869
1405 869
1406 869
1407 869
1408 869
1409 869
1410 869
1411 869
1412 869
1413 869
1338 870
1339 870
1340 870
1341 870
1342 870
1343 870
1344 870
1345 870
1346 870
1347 870
1348 870
1349 870
1350 870
1351 870
1352 870
1353 870
1354 870
1355 870
1356 870
1357 870
1358 870
1359 870
1360 870
1361 870
1362 870
1363 870
1364 870
1365 870
1366 870
1367 870
1368 870
1369 870
1370 870
1371 870
1372 870
1373 870
1374 870
1375 870
1376 870
1377 870
1378 870
1379 870
1380 870
1381 870
1382 870
1383 870
1384 870
1385 870
1386 870
1387 870
1388 870
1389 870
1390 870
1391 870
1392 870
1393 870
1394 870
1395 870
1396 870
1397 870
1398 870
1399 870
1400 870
1401 870
1402 870
1403 870
1404 870
1405 870
1406 870
1407 870
1408 870
1409 870
1410 870
1411 870
1412 870
1413 870
1338 871
1339 871
1340 871
1341 871
1342 871
1343 871
1344 871
1345 871
1346 871
1347 871
1348 871
1349 871
1350 871
1351 871
1352 871
1353 871
1354 871
1355 871
1356 871
1357 871
1358 871
1359 871
1360 871
1361 871
1362 871
1363 871
1364 871
1365 871
1366 871
1367 871
1368 871
1369 871
1370 871
1371 871
1372 871
1373 871
1374 871
1375 871
1376 871
1377 871
1378 871
1379 871
1380 871
1381 871
1382 871
1383 871
1384 871
1385 871
1386 871
1387 871
1388 871
1389 871
1390 871
1391 871
1392 871
1393 871
1394 871
1395 871
1396 871
1397 871
1398 871
1399 871
1400 871
1401 871
1402 871
1403 871
1404 871
1405 871
1406 871
1407 871
1408 871
1409 871
1410 871
1411 871
1412 871
1413 871
1338 872
1339 872
1340 872
1341 872
1342 872
1343 872
1344 872
1345 872
1346 872
1347 872
1348 872
1349 872
1350 872
1351 872
1352 872
1353 872
1354 872
1355 872
1356 872
1357 872
1358 872
1359 872
1360 872
1361 872
1362 872
1363 872
1364 872
1365 872
1366 872
1367 872
1368 872
1369 872
1370 872
1371 872
1372 872
1373 872
1374 872
1375 872
1376 872
1377 872
1378 872
1379 872
1380 872
1381 872
1382 872
1383 872
1384 872
1385 872
1386 872
1387 872
1388 872
1389 872
1390 872
1391 872
1392 872
1393 872
1394 872
1395 872
1396 872
1397 872
1398 872
1399 872
1400 872
1401 872
1402 872
1403 872
1404 872
1405 872
1406 872
1407 872
1408 872
1409 872
1410 872
1411 872
1412 872
1413 872
1338 873
1339 873
1340 873
1341 873
1342 873
1343 873
1344 873
1345 873
1346 873
1347 873
1348 873
1349 873
1350 873
1351 873
1352 873
1353 873
1354 873
1355 873
1356 873
1357 873
1358 873
1359 873
1360 873
1361 873
1362 873
1363 873
1364 873
1365 873
1366 873
1367 873
1368 873
1369 873
1370 873
1371 873
1372 873
1373 873
1374 873
1375 873
1376 873
1377 873
1378 873
1379 873
1380 873
1381 873
1382 873
1383 873
1384 873
1385 873
1386 873
1387 873
1388 873
1389 873
1390 873
1391 873
1392 873
1393 873
1394 873
1395 873
1396 873
1397 873
1398 873
1399 873
1400 873
1401 873
1402 873
1403 873
1404 873
1405 873
1406 873
1407 873
1408 873
1409 873
1410 873
1411 873
1412 873
1413 873
1338 874
1339 874
1340 874
1341 874
1342 874
1343 874
1344 874
1345 874
1346 874
1347 874
1348 874
1349 874
1350 874
1351 874
1352 874
1353 874
1354 874
1355 874
1356 874
1357 874
1358 874
1359 874
1360 874
1361 874
1362 874
1363 874
1364 874
1365 874
1366 874
1367 874
1368 874
1369 874
1370 874
1371 874
1372 874
1373 874
1374 874
1375 874
1376 874
1377 874
1378 874
1379 874
1380 874
1381 874
1382 874
1383 874
1384 874
1385 874
1386 874
1387 874
1388 874
1389 874
1390 874
1391 874
1392 874
1393 874
1394 874
1395 874
1396 874
1397 874
1398 874
1399 874
1400 874
1401 874
1402 874
1403 874
1404 874
1405 874
1406 874
1407 874
1408 874
1409 874
1410 874
1411 874
1412 874
1413 874
1338 875
1339 875
1340 875
1341 875
1342 875
1343 875
1344 875
1345 875
1346 875
1347 875
1348 875
1349 875
1350 875
1351 875
1352 875
1353 875
1354 875
1355 875
1356 875
1357 875
1358 875
1359 875
1360 875
1361 875
1362 875
1363 875
1364 875
1365 875
1366 875
1367 875
1368 875
1369 875
1370 875
1371 875
1372 875
1373 875
1374 875
1375 875
1376 875
1377 875
1378 875
1379 875
1380 875
1381 875
1382 875
1383 875
1384 875
1385 875
1386 875
1387 875
1388 875
1389 875
1390 875
1391 875
1392 875
1393 875
1394 875
1395 875
1396 875
1397 875
1398 875
1399 875
1400 875
1401 875
1402 875
1403 875
1404 875
1405 875
1406 875
1407 875
1408 875
1409 875
1410 875
1411 875
1412 875
1413 875
1338 876
1339 876
1340 876
1341 876
1342 876
1343 876
1344 876
1345 876
1346 876
1347 876
1348 876
1349 876
1350 876
1351 876
1352 876
1353 876
1354 876
1355 876
1356 876
1357 876
1358 876
1359 876
1360 876
1361 876
1362 876
1363 876
1364 876
1365 876
1366 876
1367 876
1368 876
1369 876
1370 876
1371 876
1372 876
1373 876
1374 876
1375 876
1376 876
1377 876
1378 876
1379 876
1380 876
1381 876
1382 876
1383 876
1384 876
1385 876
1386 876
1387 876
1388 876
1389 876
1390 876
1391 876
1392 876
1393 876
1394 876
1395 876
1396 876
1397 876
1398 876
1399 876
1400 876
1401 876
1402 876
1403 876
1404 876
1405 876
1406 876
1407 876
1408 876
1409 876
1410 876
1411 876
1412 876
1413 876
1338 877
1339 877
1340 877
1341 877
1342 877
1343 877
1344 877
1345 877
1346 877
1347 877
1348 877
1349 877
1350 877
1351 877
1352 877
1353 877
1354 877
1355 877
1356 877
1357 877
1358 877
1359 877
1360 877
1361 877
1362 877
1363 877
1364 877
1365 877
1366 877
1367 877
1368 877
1369 877
1370 877
1371 877
1372 877
1373 877
1374 877
1375 877
1376 877
1377 877
1378 877
1379 877
1380 877
1381 877
1382 877
1383 877
1384 877
1385 877
1386 877
1387 877
1388 877
1389 877
1390 877
1391 877
1392 877
1393 877
1394 877
1395 877
1396 877
1397 877
1398 877
1399 877
1400 877
1401 877
1402 877
1403 877
1404 877
1405 877
1406 877
1407 877
1408 877
1409 877
1410 877
1411 877
1412 877
1413 877
1338 878
1339 878
1340 878
1341 878
1342 878
1343 878
1344 878
1345 878
1346 878
1347 878
1348 878
1349 878
1350 878
1351 878
1352 878
1353 878
1354 878
1355 878
1356 878
1357 878
1358 878
1359 878
1360 878
1361 878
1362 878
1363 878
1364 878
1365 878
1366 878
1367 878
1368 878
1369 878
1370 878
1371 878
1372 878
1373 878
1374 878
1375 878
1376 878
1377 878
1378 878
1379 878
1380 878
1381 878
1382 878
1383 878
1384 878
1385 878
1386 878
1387 878
1388 878
1389 878
1390 878
1391 878
1392 878
1393 878
1394 878
1395 878
1396 878
1397 878
1398 878
1399 878
1400 878
1401 878
1402 878
1403 878
1404 878
1405 878
1406 878
1407 878
1408 878
1409 878
1410 878
1411 878
1412 878
1413 878
1338 879
1339 879
1340 879
1341 879
1342 879
1343 879
1344 879
1345 879
1346 879
1347 879
1348 879
1349 879
1350 879
1351 879
1352 879
1353 879
1354 879
1355 879
1356 879
1357 879
1358 879
1359 879
1360 879
1361 879
1362 879
1363 879
1364 879
1365 879
1366 879
1367 879
1368 879
1369 879
1370 879
1371 879
1372 879
1373 879
1374 879
1375 879
1376 879
1377 879
1378 879
1379 879
1380 879
1381 879
1382 879
1383 879
1384 879
1385 879
1386 879
1387 879
1388 879
1389 879
1390 879
1391 879
1392 879
1393 879
1394 879
1395 879
1396 879
1397 879
1398 879
1399 879
1400 879
1401 879
1402 879
1403 879
1404 879
1405 879
1406 879
1407 879
1408 879
1409 879
1410 879
1411 879
1412 879
1413 879
1338 880
1339 880
1340 880
1341 880
1342 880
1343 880
1344 880
1345 880
1346 880
1347 880
1348 880
1349 880
1350 880
1351 880
1352 880
1353 880
1354 880
1355 880
1356 880
1357 880
1358 880
1359 880
1360 880
1361 880
1362 880
1363 880
1364 880
1365 880
1366 880
1367 880
1368 880
1369 880
1370 880
1371 880
1372 880
1373 880
1374 880
1375 880
1376 880
1377 880
1378 880
1379 880
1380 880
1381 880
1382 880
1383 880
1384 880
1385 880
1386 880
1387 880
1388 880
1389 880
1390 880
1391 880
1392 880
1393 880
1394 880
1395 880
1396 880
1397 880
1398 880
1399 880
1400 880
1401 880
1402 880
1403 880
1404 880
1405 880
1406 880
1407 880
1408 880
1409 880
1410 880
1411 880
1412 880
1413 880
1338 881
1339 881
1340 881
1341 881
1342 881
1343 881
1344 881
1345 881
1346 881
1347 881
1348 881
1349 881
1350 881
1351 881
1352 881
1353 881
1354 881
1355 881
1356 881
1357 881
1358 881
1359 881
1360 881
1361 881
1362 881
1363 881
1364 881
1365 881
1366 881
1367 881
1368 881
1369 881
1370 881
1371 881
1372 881
1373 881
1374 881
1375 881
1376 881
1377 881
1378 881
1379 881
1380 881
1381 881
1382 881
1383 881
1384 881
1385 881
1386 881
1387 881
1388 881
1389 881
1390 881
1391 881
1392 881
1393 881
1394 881
1395 881
1396 881
1397 881
1398 881
1399 881
1400 881
1401 881
1402 881
1403 881
1404 881
1405 881
1406 881
1407 881
1408 881
1409 881
1410 881
1411 881
1412 881
1413 881
1338 882
1339 882
1340 882
1341 882
1342 882
1343 882
1344 882
1345 882
1346 882
1347 882
1348 882
1349 882
1350 882
1351 882
1352 882
1353 882
1354 882
1355 882
1356 882
1357 882
1358 882
1359 882
1360 882
1361 882
1362 882
1363 882
1364 882
1365 882
1366 882
1367 882
1368 882
1369 882
1370 882
1371 882
1372 882
1373 882
1374 882
1375 882
1376 882
1377 882
1378 882
1379 882
1380 882
1381 882
1382 882
1383 882
1384 882
1385 882
1386 882
1387 882
1388 882
1389 882
1390 882
1391 882
1392 882
1393 882
1394 882
1395 882
1396 882
1397 882
1398 882
1399 882
1400 882
1401 882
1402 882
1403 882
1404 882
1405 882
1406 882
1407 882
1408 882
1409 882
1410 882
1411 882
1412 882
1413 882
1338 883
1339 883
1340 883
1341 883
1342 883
1343 883
1344 883
1345 883
1346 883
1347 883
1348 883
1349 883
1350 883
1351 883
1352 883
1353 883
1354 883
1355 883
1356 883
1357 883
1358 883
1359 883
1360 883
1361 883
1362 883
1363 883
1364 883
1365 883
1366 883
1367 883
1368 883
1369 883
1370 883
1371 883
1372 883
1373 883
1374 883
1375 883
1376 883
1377 883
1378 883
1379 883
1380 883
1381 883
1382 883
1383 883
1384 883
1385 883
1386 883
1387 883
1388 883
1389 883
1390 883
1391 883
1392 883
1393 883
1394 883
1395 883
1396 883
1397 883
1398 883
1399 883
1400 883
1401 883
1402 883
1403 883
1404 883
1405 883
1406 883
1407 883
1408 883
1409 883
1410 883
1411 883
1412 883
1413 883
1338 884
1339 884
1340 884
1341 884
1342 884
1343 884
1344 884
1345 884
1346 884
1347 884
1348 884
1349 884
1350 884
1351 884
1352 884
1353 884
1354 884
1355 884
1356 884
1357 884
1358 884
1359 884
1360 884
1361 884
1362 884
1363 884
1364 884
1365 884
1366 884
1367 884
1368 884
1369 884
1370 884
1371 884
1372 884
1373 884
1374 884
1375 884
1376 884
1377 884
1378 884
1379 884
1380 884
1381 884
1382 884
1383 884
1384 884
1385 884
1386 884
1387 884
1388 884
1389 884
1390 884
1391 884
1392 884
1393 884
1394 884
1395 884
1396 884
1397 884
1398 884
1399 884
1400 884
1401 884
1402 884
1403 884
1404 884
1405 884
1406 884
1407 884
1408 884
1409 884
1410 884
1411 884
1412 884
1413 884
1338 885
1339 885
1340 885
1341 885
1342 885
1343 885
1344 885
1345 885
1346 885
1347 885
1348 885
1349 885
1350 885
1351 885
1352 885
1353 885
1354 885
1355 885
1356 885
1357 885
1358 885
1359 885
1360 885
1361 885
1362 885
1363 885
1364 885
1365 885
1366 885
1367 885
1368 885
1369 885
1370 885
1371 885
1372 885
1373 885
1374 885
1375 885
1376 885
1377 885
1378 885
1379 885
1380 885
1381 885
1382 885
1383 885
1384 885
1385 885
1386 885
1387 885
1388 885
1389 885
1390 885
1391 885
1392 885
1393 885
1394 885
1395 885
1396 885
1397 885
1398 885
1399 885
1400 885
1401 885
1402 885
1403 885
1404 885
1405 885
1406 885
1407 885
1408 885
1409 885
1410 885
1411 885
1412 885
1413 885
1338 886
1339 886
1340 886
1341 886
1342 886
1343 886
1344 886
1345 886
1346 886
1347 886
1348 886
1349 886
1350 886
1351 886
1352 886
1353 886
1354 886
1355 886
1356 886
1357 886
1358 886
1359 886
1360 886
1361 886
1362 886
1363 886
1364 886
1365 886
1366 886
1367 886
1368 886
1369 886
1370 886
1371 886
1372 886
1373 886
1374 886
1375 886
1376 886
1377 886
1378 886
1379 886
1380 886
1381 886
1382 886
1383 886
1384 886
1385 886
1386 886
1387 886
1388 886
1389 886
1390 886
1391 886
1392 886
1393 886
1394 886
1395 886
1396 886
1397 886
1398 886
1399 886
1400 886
1401 886
1402 886
1403 886
1404 886
1405 886
1406 886
1407 886
1408 886
1409 886
1410 886
1411 886
1412 886
1413 886
1338 887
1339 887
1340 887
1341 887
1342 887
1343 887
1344 887
1345 887
1346 887
1347 887
1348 887
1349 887
1350 887
1351 887
1352 887
1353 887
1354 887
1355 887
1356 887
1357 887
1358 887
1359 887
1360 887
1361 887
1362 887
1363 887
1364 887
1365 887
1366 887
1367 887
1368 887
1369 887
1370 887
1371 887
1372 887
1373 887
1374 887
1375 887
1376 887
1377 887
1378 887
1379 887
1380 887
1381 887
1382 887
1383 887
1384 887
1385 887
1386 887
1387 887
1388 887
1389 887
1390 887
1391 887
1392 887
1393 887
1394 887
1395 887
1396 887
1397 887
1398 887
1399 887
1400 887
1401 887
1402 887
1403 887
1404 887
1405 887
1406 887
1407 887
1408 887
1409 887
1410 887
1411 887
1412 887
1413 887
1338 888
1339 888
1340 888
1341 888
1342 888
1343 888
1344 888
1345 888
1346 888
1347 888
1348 888
1349 888
1350 888
1351 888
1352 888
1353 888
1354 888
1355 888
1356 888
1357 888
1358 888
1359 888
1360 888
1361 888
1362 888
1363 888
1364 888
1365 888
1366 888
1367 888
1368 888
1369 888
1370 888
1371 888
1372 888
1373 888
1374 888
1375 888
1376 888
1377 888
1378 888
1379 888
1380 888
1381 888
1382 888
1383 888
1384 888
1385 888
1386 888
1387 888
1388 888
1389 888
1390 888
1391 888
1392 888
1393 888
1394 888
1395 888
1396 888
1397 888
1398 888
1399 888
1400 888
1401 888
1402 888
1403 888
1404 888
1405 888
1406 888
1407 888
1408 888
1409 888
1410 888
1411 888
1412 888
1413 888
1338 889
1339 889
1340 889
1341 889
1342 889
1343 889
1344 889
1345 889
1346 889
1347 889
1348 889
1349 889
1350 889
1351 889
1352 889
1353 889
1354 889
1355 889
1356 889
1357 889
1358 889
1359 889
1360 889
1361 889
1362 889
1363 889
1364 889
1365 889
1366 889
1367 889
1368 889
1369 889
1370 889
1371 889
1372 889
1373 889
1374 889
1375 889
1376 889
1377 889
1378 889
1379 889
1380 889
1381 889
1382 889
1383 889
1384 889
1385 889
1386 889
1387 889
1388 889
1389 889
1390 889
1391 889
1392 889
1393 889
1394 889
1395 889
1396 889
1397 889
1398 889
1399 889
1400 889
1401 889
1402 889
1403 889
1404 889
1405 889
1406 889
1407 889
1408 889
1409 889
1410 889
1411 889
1412 889
1413 889
1338 890
1339 890
1340 890
1341 890
1342 890
1343 890
1344 890
1345 890
1346 890
1347 890
1348 890
1349 890
1350 890
1351 890
1352 890
1353 890
1354 890
1355 890
1356 890
1357 890
1358 890
1359 890
1360 890
1361 890
1362 890
1363 890
1364 890
1365 890
1366 890
1367 890
1368 890
1369 890
1370 890
1371 890
1372 890
1373 890
1374 890
1375 890
1376 890
1377 890
1378 890
1379 890
1380 890
1381 890
1382 890
1383 890
1384 890
1385 890
1386 890
1387 890
1388 890
1389 890
1390 890
1391 890
1392 890
1393 890
1394 890
1395 890
1396 890
1397 890
1398 890
1399 890
1400 890
1401 890
1402 890
1403 890
1404 890
1405 890
1406 890
1407 890
1408 890
1409 890
1410 890
1411 890
1412 890
1413 890
1338 891
1339 891
1340 891
1341 891
1342 891
1343 891
1344 891
1345 891
1346 891
1347 891
1348 891
1349 891
1350 891
1351 891
1352 891
1353 891
1354 891
1355 891
1356 891
1357 891
1358 891
1359 891
1360 891
1361 891
1362 891
1363 891
1364 891
1365 891
1366 891
1367 891
1368 891
1369 891
1370 891
1371 891
1372 891
1373 891
1374 891
1375 891
1376 891
1377 891
1378 891
1379 891
1380 891
1381 891
1382 891
1383 891
1384 891
1385 891
1386 891
1387 891
1388 891
1389 891
1390 891
1391 891
1392 891
1393 891
1394 891
1395 891
1396 891
1397 891
1398 891
1399 891
1400 891
1401 891
1402 891
1403 891
1404 891
1405 891
1406 891
1407 891
1408 891
1409 891
1410 891
1411 891
1412 891
1413 891
1338 892
1339 892
1340 892
1341 892
1342 892
1343 892
1344 892
1345 892
1346 892
1347 892
1348 892
1349 892
1350 892
1351 892
1352 892
1353 892
1354 892
1355 892
1356 892
1357 892
1358 892
1359 892
1360 892
1361 892
1362 892
1363 892
1364 892
1365 892
1366 892
1367 892
1368 892
1369 892
1370 892
1371 892
1372 892
1373 892
1374 892
1375 892
1376 892
1377 892
1378 892
1379 892
1380 892
1381 892
1382 892
1383 892
1384 892
1385 892
1386 892
1387 892
1388 892
1389 892
1390 892
1391 892
1392 892
1393 892
1394 892
1395 892
1396 892
1397 892
1398 892
1399 892
1400 892
1401 892
1402 892
1403 892
1404 892
1405 892
1406 892
1407 892
1408 892
1409 892
1410 892
1411 892
1412 892
1413 892
1338 893
1339 893
1340 893
1341 893
1342 893
1343 893
1344 893
1345 893
1346 893
1347 893
1348 893
1349 893
1350 893
1351 893
1352 893
1353 893
1354 893
1355 893
1356 893
1357 893
1358 893
1359 893
1360 893
1361 893
1362 893
1363 893
1364 893
1365 893
1366 893
1367 893
1368 893
1369 893
1370 893
1371 893
1372 893
1373 893
1374 893
1375 893
1376 893
1377 893
1378 893
1379 893
1380 893
1381 893
1382 893
1383 893
1384 893
1385 893
1386 893
1387 893
1388 893
1389 893
1390 893
1391 893
1392 893
1393 893
1394 893
1395 893
1396 893
1397 893
1398 893
1399 893
1400 893
1401 893
1402 893
1403 893
1404 893
1405 893
1406 893
1407 893
1408 893
1409 893
1410 893
1411 893
1412 893
1413 893
1338 894
1339 894
1340 894
1341 894
1342 894
1343 894
1344 894
1345 894
1346 894
1347 894
1348 894
1349 894
1350 894
1351 894
1352 894
1353 894
1354 894
1355 894
1356 894
1357 894
1358 894
1359 894
1360 894
1361 894
1362 894
1363 894
1364 894
1365 894
1366 894
1367 894
1368 894
1369 894
1370 894
1371 894
1372 894
1373 894
1374 894
1375 894
1376 894
1377 894
1378 894
1379 894
1380 894
1381 894
1382 894
1383 894
1384 894
1385 894
1386 894
1387 894
1388 894
1389 894
1390 894
1391 894
1392 894
1393 894
1394 894
1395 894
1396 894
1397 894
1398 894
1399 894
1400 894
1401 894
1402 894
1403 894
1404 894
1405 894
1406 894
1407 894
1408 894
1409 894
1410 894
1411 894
1412 894
1413 894
1338 895
1339 895
1340 895
1341 895
1342 895
1343 895
1344 895
1345 895
1346 895
1347 895
1348 895
1349 895
1350 895
1351 895
1352 895
1353 895
1354 895
1355 895
1356 895
1357 895
1358 895
1359 895
1360 895
1361 895
1362 895
1363 895
1364 895
1365 895
1366 895
1367 895
1368 895
1369 895
1370 895
1371 895
1372 895
1373 895
1374 895
1375 895
1376 895
1377 895
1378 895
1379 895
1380 895
1381 895
1382 895
1383 895
1384 895
1385 895
1386 895
1387 895
1388 895
1389 895
1390 895
1391 895
1392 895
1393 895
1394 895
1395 895
1396 895
1397 895
1398 895
1399 895
1400 895
1401 895
1402 895
1403 895
1404 895
1405 895
1406 895
1407 895
1408 895
1409 895
1410 895
1411 895
1412 895
1413 895
1338 896
1339 896
1340 896
1341 896
1342 896
1343 896
1344 896
1345 896
1346 896
1347 896
1348 896
1349 896
1350 896
1351 896
1352 896
1353 896
1354 896
1355 896
1356 896
1357 896
1358 896
1359 896
1360 896
1361 896
1362 896
1363 896
1364 896
1365 896
1366 896
1367 896
1368 896
1369 896
1370 896
1371 896
1372 896
1373 896
1374 896
1375 896
1376 896
1377 896
1378 896
1379 896
1380 896
1381 896
1382 896
1383 896
1384 896
1385 896
1386 896
1387 896
1388 896
1389 896
1390 896
1391 896
1392 896
1393 896
1394 896
1395 896
1396 896
1397 896
1398 896
1399 896
1400 896
1401 896
1402 896
1403 896
1404 896
1405 896
1406 896
1407 896
1408 896
1409 896
1410 896
1411 896
1412 896
1413 896
1338 897
1339 897
1340 897
1341 897
1342 897
1343 897
1344 897
1345 897
1346 897
1347 897
1348 897
1349 897
1350 897
1351 897
1352 897
1353 897
1354 897
1355 897
1356 897
1357 897
1358 897
1359 897
1360 897
1361 897
1362 897
1363 897
1364 897
1365 897
1366 897
1367 897
1368 897
1369 897
1370 897
1371 897
1372 897
1373 897
1374 897
1375 897
1376 897
1377 897
1378 897
1379 897
1380 897
1381 897
1382 897
1383 897
1384 897
1385 897
1386 897
1387 897
1388 897
1389 897
1390 897
1391 897
1392 897
1393 897
1394 897
1395 897
1396 897
1397 897
1398 897
1399 897
1400 897
1401 897
1402 897
1403 897
1404 897
1405 897
1406 897
1407 897
1408 897
1409 897
1410 897
1411 897
1412 897
1413 897
1338 898
1339 898
1340 898
1341 898
1342 898
1343 898
1344 898
1345 898
1346 898
1347 898
1348 898
1349 898
1350 898
1351 898
1352 898
1353 898
1354 898
1355 898
1356 898
1357 898
1358 898
1359 898
1360 898
1361 898
1362 898
1363 898
1364 898
1365 898
1366 898
1367 898
1368 898
1369 898
1370 898
1371 898
1372 898
1373 898
1374 898
1375 898
1376 898
1377 898
1378 898
1379 898
1380 898
1381 898
1382 898
1383 898
1384 898
1385 898
1386 898
1387 898
1388 898
1389 898
1390 898
1391 898
1392 898
1393 898
1394 898
1395 898
1396 898
1397 898
1398 898
1399 898
1400 898
1401 898
1402 898
1403 898
1404 898
1405 898
1406 898
1407 898
1408 898
1409 898
1410 898
1411 898
1412 898
1413 898
1338 899
1339 899
1340 899
1341 899
1342 899
1343 899
1344 899
1345 899
1346 899
1347 899
1348 899
1349 899
1350 899
1351 899
1352 899
1353 899
1354 899
1355 899
1356 899
1357 899
1358 899
1359 899
1360 899
1361 899
1362 899
1363 899
1364 899
1365 899
1366 899
1367 899
1368 899
1369 899
1370 899
1371 899
1372 899
1373 899
1374 899
1375 899
1376 899
1377 899
1378 899
1379 899
1380 899
1381 899
1382 899
1383 899
1384 899
1385 899
1386 899
1387 899
1388 899
1389 899
1390 899
1391 899
1392 899
1393 899
1394 899
1395 899
1396 899
1397 899
1398 899
1399 899
1400 899
1401 899
1402 899
1403 899
1404 899
1405 899
1406 899
1407 899
1408 899
1409 899
1410 899
1411 899
1412 899
1413 899
1338 900
1339 900
1340 900
1341 900
1342 900
1343 900
1344 900
1345 900
1346 900
1347 900
1348 900
1349 900
1350 900
1351 900
1352 900
1353 900
1354 900
1355 900
1356 900
1357 900
1358 900
1359 900
1360 900
1361 900
1362 900
1363 900
1364 900
1365 900
1366 900
1367 900
1368 900
1369 900
1370 900
1371 900
1372 900
1373 900
1374 900
1375 900
1376 900
1377 900
1378 900
1379 900
1380 900
1381 900
1382 900
1383 900
1384 900
1385 900
1386 900
1387 900
1388 900
1389 900
1390 900
1391 900
1392 900
1393 900
1394 900
1395 900
1396 900
1397 900
1398 900
1399 900
1400 900
1401 900
1402 900
1403 900
1404 900
1405 900
1406 900
1407 900
1408 900
1409 900
1410 900
1411 900
1412 900
1413 900
1338 901
1339 901
1340 901
1341 901
1342 901
1343 901
1344 901
1345 901
1346 901
1347 901
1348 901
1349 901
1350 901
1351 901
1352 901
1353 901
1354 901
1355 901
1356 901
1357 901
1358 901
1359 901
1360 901
1361 901
1362 901
1363 901
1364 901
1365 901
1366 901
1367 901
1368 901
1369 901
1370 901
1371 901
1372 901
1373 901
1374 901
1375 901
1376 901
1377 901
1378 901
1379 901
1380 901
1381 901
1382 901
1383 901
1384 901
1385 901
1386 901
1387 901
1388 901
1389 901
1390 901
1391 901
1392 901
1393 901
1394 901
1395 901
1396 901
1397 901
1398 901
1399 901
1400 901
1401 901
1402 901
1403 901
1404 901
1405 901
1406 901
1407 901
1408 901
1409 901
1410 901
1411 901
1412 901
1413 901
1338 902
1339 902
1340 902
1341 902
1342 902
1343 902
1344 902
1345 902
1346 902
1347 902
1348 902
1349 902
1350 902
1351 902
1352 902
1353 902
1354 902
1355 902
1356 902
1357 902
1358 902
1359 902
1360 902
1361 902
1362 902
1363 902
1364 902
1365 902
1366 902
1367 902
1368 902
1369 902
1370 902
1371 902
1372 902
1373 902
1374 902
1375 902
1376 902
1377 902
1378 902
1379 902
1380 902
1381 902
1382 902
1383 902
1384 902
1385 902
1386 902
1387 902
1388 902
1389 902
1390 902
1391 902
1392 902
1393 902
1394 902
1395 902
1396 902
1397 902
1398 902
1399 902
1400 902
1401 902
1402 902
1403 902
1404 902
1405 902
1406 902
1407 902
1408 902
1409 902
1410 902
1411 902
1412 902
1413 902
1458 940
1459 940
1460 940
1461 940
1462 940
1463 940
1464 940
1465 940
1466 940
1467 940
1468 940
1469 940
1470 940
1471 940
1472 940
1473 940
1474 940
1475 940
1476 940
1477 940
1478 940
1479 940
1480 940
1481 940
1482 940
1483 940
1484 940
1485 940
1486 940
1487 940
1488 940
1489 940
1490 940
1491 940
1492 940
1493 940
1494 940
1495 940
1496 940
1497 940
1498 940
1499 940
1500 940
1501 940
1502 940
1503 940
1504 940
1505 940
1506 940
1507 940
1508 940
1509 940
1510 940
1511 940
1512 940
1513 940
1514 940
1515 940
1516 940
1517 940
1518 940
1519 940
1520 940
1521 940
1522 940
1523 940
1524 940
1525 940
1526 940
1527 940
1528 940
1529 940
1530 940
1531 940
1532 940
1533 940
1458 941
1459 941
1460 941
1461 941
1462 941
1463 941
1464 941
1465 941
1466 941
1467 941
1468 941
1469 941
1470 941
1471 941
1472 941
1473 941
1474 941
1475 941
1476 941
1477 941
1478 941
1479 941
1480 941
1481 941
1482 941
1483 941
1484 941
1485 941
1486 941
1487 941
1488 941
1489 941
1490 941
1491 941
1492 941
1493 941
1494 941
1495 941
1496 941
1497 941
1498 941
1499 941
1500 941
1501 941
1502 941
1503 941
1504 941
1505 941
1506 941
1507 941
1508 941
1509 941
1510 941
1511 941
1512 941
1513 941
1514 941
1515 941
1516 941
1517 941
1518 941
1519 941
1520 941
1521 941
1522 941
1523 941
1524 941
1525 941
1526 941
1527 941
1528 941
1529 941
1530 941
1531 941
1532 941
1533 941
1458 942
1459 942
1460 942
1461 942
1462 942
1463 942
1464 942
1465 942
1466 942
1467 942
1468 942
1469 942
1470 942
1471 942
1472 942
1473 942
1474 942
1475 942
1476 942
1477 942
1478 942
1479 942
1480 942
1481 942
1482 942
1483 942
1484 942
1485 942
1486 942
1487 942
1488 942
1489 942
1490 942
1491 942
1492 942
1493 942
1494 942
1495 942
1496 942
1497 942
1498 942
1499 942
1500 942
1501 942
1502 942
1503 942
1504 942
1505 942
1506 942
1507 942
1508 942
1509 942
1510 942
1511 942
1512 942
1513 942
1514 942
1515 942
1516 942
1517 942
1518 942
1519 942
1520 942
1521 942
1522 942
1523 942
1524 942
1525 942
1526 942
1527 942
1528 942
1529 942
1530 942
1531 942
1532 942
1533 942
1458 943
1459 943
1460 943
1461 943
1462 943
1463 943
1464 943
1465 943
1466 943
1467 943
1468 943
1469 943
1470 943
1471 943
1472 943
1473 943
1474 943
1475 943
1476 943
1477 943
1478 943
1479 943
1480 943
1481 943
1482 943
1483 943
1484 943
1485 943
1486 943
1487 943
1488 943
1489 943
1490 943
1491 943
1492 943
1493 943
1494 943
1495 943
1496 943
1497 943
1498 943
1499 943
1500 943
1501 943
1502 943
1503 943
1504 943
1505 943
1506 943
1507 943
1508 943
1509 943
1510 943
1511 943
1512 943
1513 943
1514 943
1515 943
1516 943
1517 943
1518 943
1519 943
1520 943
1521 943
1522 943
1523 943
1524 943
1525 943
1526 943
1527 943
1528 943
1529 943
1530 943
1531 943
1532 943
1533 943
1458 944
1459 944
1460 944
1461 944
1462 944
1463 944
1464 944
1465 944
1466 944
1467 944
1468 944
1469 944
1470 944
1471 944
1472 944
1473 944
1474 944
1475 944
1476 944
1477 944
1478 944
1479 944
1480 944
1481 944
1482 944
1483 944
1484 944
1485 944
1486 944
1487 944
1488 944
1489 944
1490 944
1491 944
1492 944
1493 944
1494 944
1495 944
1496 944
1497 944
1498 944
1499 944
1500 944
1501 944
1502 944
1503 944
1504 944
1505 944
1506 944
1507 944
1508 944
1509 944
1510 944
1511 944
1512 944
1513 944
1514 944
1515 944
1516 944
1517 944
1518 944
1519 944
1520 944
1521 944
1522 944
1523 944
1524 944
1525 944
1526 944
1527 944
1528 944
1529 944
1530 944
1531 944
1532 944
1533 944
1458 945
1459 945
1460 945
1461 945
1462 945
1463 945
1464 945
1465 945
1466 945
1467 945
1468 945
1469 945
1470 945
1471 945
1472 945
1473 945
1474 945
1475 945
1476 945
1477 945
1478 945
1479 945
1480 945
1481 945
1482 945
1483 945
1484 945
1485 945
1486 945
1487 945
1488 945
1489 945
1490 945
1491 945
1492 945
1493 945
1494 945
1495 945
1496 945
1497 945
1498 945
1499 945
1500 945
1501 945
1502 945
1503 945
1504 945
1505 945
1506 945
1507 945
1508 945
1509 945
1510 945
1511 945
1512 945
1513 945
1514 945
1515 945
1516 945
1517 945
1518 945
1519 945
1520 945
1521 945
1522 945
1523 945
1524 945
1525 945
1526 945
1527 945
1528 945
1529 945
1530 945
1531 945
1532 945
1533 945
1458 946
1459 946
1460 946
1461 946
1462 946
1463 946
1464 946
1465 946
1466 946
1467 946
1468 946
1469 946
1470 946
1471 946
1472 946
1473 946
1474 946
1475 946
1476 946
1477 946
1478 946
1479 946
1480 946
1481 946
1482 946
1483 946
1484 946
1485 946
1486 946
1487 946
1488 946
1489 946
1490 946
1491 946
1492 946
1493 946
1494 946
1495 946
1496 946
1497 946
1498 946
1499 946
1500 946
1501 946
1502 946
1503 946
1504 946
1505 946
1506 946
1507 946
1508 946
1509 946
1510 946
1511 946
1512 946
1513 946
1514 946
1515 946
1516 946
1517 946
1518 946
1519 946
1520 946
1521 946
1522 946
1523 946
1524 946
1525 946
1526 946
1527 946
1528 946
1529 946
1530 946
1531 946
1532 946
1533 946
1458 947
1459 947
1460 947
1461 947
1462 947
1463 947
1464 947
1465 947
1466 947
1467 947
1468 947
1469 947
1470 947
1471 947
1472 947
1473 947
1474 947
1475 947
1476 947
1477 947
1478 947
1479 947
1480 947
1481 947
1482 947
1483 947
1484 947
1485 947
1486 947
1487 947
1488 947
1489 947
1490 947
1491 947
1492 947
1493 947
1494 947
1495 947
1496 947
1497 947
1498 947
1499 947
1500 947
1501 947
1502 947
1503 947
1504 947
1505 947
1506 947
1507 947
1508 947
1509 947
1510 947
1511 947
1512 947
1513 947
1514 947
1515 947
1516 947
1517 947
1518 947
1519 947
1520 947
1521 947
1522 947
1523 947
1524 947
1525 947
1526 947
1527 947
1528 947
1529 947
1530 947
1531 947
1532 947
1533 947
1458 948
1459 948
1460 948
1461 948
1462 948
1463 948
1464 948
1465 948
1466 948
1467 948
1468 948
1469 948
1470 948
1471 948
1472 948
1473 948
1474 948
1475 948
1476 948
1477 948
1478 948
1479 948
1480 948
1481 948
1482 948
1483 948
1484 948
1485 948
1486 948
1487 948
1488 948
1489 948
1490 948
1491 948
1492 948
1493 948
1494 948
1495 948
1496 948
1497 948
1498 948
1499 948
1500 948
1501 948
1502 948
1503 948
1504 948
1505 948
1506 948
1507 948
1508 948
1509 948
1510 948
1511 948
1512 948
1513 948
1514 948
1515 948
1516 948
1517 948
1518 948
1519 948
1520 948
1521 948
1522 948
1523 948
1524 948
1525 948
1526 948
1527 948
1528 948
1529 948
1530 948
1531 948
1532 948
1533 948
1458 949
1459 949
1460 949
1461 949
1462 949
1463 949
1464 949
1465 949
1466 949
1467 949
1468 949
1469 949
1470 949
1471 949
1472 949
1473 949
1474 949
1475 949
1476 949
1477 949
1478 949
1479 949
1480 949
1481 949
1482 949
1483 949
1484 949
1485 949
1486 949
1487 949
1488 949
1489 949
1490 949
1491 949
1492 949
1493 949
1494 949
1495 949
1496 949
1497 949
1498 949
1499 949
1500 949
1501 949
1502 949
1503 949
1504 949
1505 949
1506 949
1507 949
1508 949
1509 949
1510 949
1511 949
1512 949
1513 949
1514 949
1515 949
1516 949
1517 949
1518 949
1519 949
1520 949
1521 949
1522 949
1523 949
1524 949
1525 949
1526 949
1527 949
1528 949
1529 949
1530 949
1531 949
1532 949
1533 949
1458 950
1459 950
1460 950
1461 950
1462 950
1463 950
1464 950
1465 950
1466 950
1467 950
1468 950
1469 950
1470 950
1471 950
1472 950
1473 950
1474 950
1475 950
1476 950
1477 950
1478 950
1479 950
1480 950
1481 950
1482 950
1483 950
1484 950
1485 950
1486 950
1487 950
1488 950
1489 950
1490 950
1491 950
1492 950
1493 950
1494 950
1495 950
1496 950
1497 950
1498 950
1499 950
1500 950
1501 950
1502 950
1503 950
1504 950
1505 950
1506 950
1507 950
1508 950
1509 950
1510 950
1511 950
1512 950
1513 950
1514 950
1515 950
1516 950
1517 950
1518 950
1519 950
1520 950
1521 950
1522 950
1523 950
1524 950
1525 950
1526 950
1527 950
1528 950
1529 950
1530 950
1531 950
1532 950
1533 950
1458 951
1459 951
1460 951
1461 951
1462 951
1463 951
1464 951
1465 951
1466 951
1467 951
1468 951
1469 951
1470 951
1471 951
1472 951
1473 951
1474 951
1475 951
1476 951
1477 951
1478 951
1479 951
1480 951
1481 951
1482 951
1483 951
1484 951
1485 951
1486 951
1487 951
1488 951
1489 951
1490 951
1491 951
1492 951
1493 951
1494 951
1495 951
1496 951
1497 951
1498 951
1499 951
1500 951
1501 951
1502 951
1503 951
1504 951
1505 951
1506 951
1507 951
1508 951
1509 951
1510 951
1511 951
1512 951
1513 951
1514 951
1515 951
1516 951
1517 951
1518 951
1519 951
1520 951
1521 951
1522 951
1523 951
1524 951
1525 951
1526 951
1527 951
1528 951
1529 951
1530 951
1531 951
1532 951
1533 951
1458 952
1459 952
1460 952
1461 952
1462 952
1463 952
1464 952
1465 952
1466 952
1467 952
1468 952
1469 952
1470 952
1471 952
1472 952
1473 952
1474 952
1475 952
1476 952
1477 952
1478 952
1479 952
1480 952
1481 952
1482 952
1483 952
1484 952
1485 952
1486 952
1487 952
1488 952
1489 952
1490 952
1491 952
1492 952
1493 952
1494 952
1495 952
1496 952
1497 952
1498 952
1499 952
1500 952
1501 952
1502 952
1503 952
1504 952
1505 952
1506 952
1507 952
1508 952
1509 952
1510 952
1511 952
1512 952
1513 952
1514 952
1515 952
1516 952
1517 952
1518 952
1519 952
1520 952
1521 952
1522 952
1523 952
1524 952
1525 952
1526 952
1527 952
1528 952
1529 952
1530 952
1531 952
1532 952
1533 952
1458 953
1459 953
1460 953
1461 953
1462 953
1463 953
1464 953
1465 953
1466 953
1467 953
1468 953
1469 953
1470 953
1471 953
1472 953
1473 953
1474 953
1475 953
1476 953
1477 953
1478 953
1479 953
1480 953
1481 953
1482 953
1483 953
1484 953
1485 953
1486 953
1487 953
1488 953
1489 953
1490 953
1491 953
1492 953
1493 953
1494 953
1495 953
1496 953
1497 953
1498 953
1499 953
1500 953
1501 953
1502 953
1503 953
1504 953
1505 953
1506 953
1507 953
1508 953
1509 953
1510 953
1511 953
1512 953
1513 953
1514 953
1515 953
1516 953
1517 953
1518 953
1519 953
1520 953
1521 953
1522 953
1523 953
1524 953
1525 953
1526 953
1527 953
1528 953
1529 953
1530 953
1531 953
1532 953
1533 953
1458 954
1459 954
1460 954
1461 954
1462 954
1463 954
1464 954
1465 954
1466 954
1467 954
1468 954
1469 954
1470 954
1471 954
1472 954
1473 954
1474 954
1475 954
1476 954
1477 954
1478 954
1479 954
1480 954
1481 954
1482 954
1483 954
1484 954
1485 954
1486 954
1487 954
1488 954
1489 954
1490 954
1491 954
1492 954
1493 954
1494 954
1495 954
1496 954
1497 954
1498 954
1499 954
1500 954
1501 954
1502 954
1503 954
1504 954
1505 954
1506 954
1507 954
1508 954
1509 954
1510 954
1511 954
1512 954
1513 954
1514 954
1515 954
1516 954
1517 954
1518 954
1519 954
1520 954
1521 954
1522 954
1523 954
1524 954
1525 954
1526 954
1527 954
1528 954
1529 954
1530 954
1531 954
1532 954
1533 954
1458 955
1459 955
1460 955
1461 955
1462 955
1463 955
1464 955
1465 955
1466 955
1467 955
1468 955
1469 955
1470 955
1471 955
1472 955
1473 955
1474 955
1475 955
1476 955
1477 955
1478 955
1479 955
1480 955
1481 955
1482 955
1483 955
1484 955
1485 955
1486 955
1487 955
1488 955
1489 955
1490 955
1491 955
1492 955
1493 955
1494 955
1495 955
1496 955
1497 955
1498 955
1499 955
1500 955
1501 955
1502 955
1503 955
1504 955
1505 955
1506 955
1507 955
1508 955
1509 955
1510 955
1511 955
1512 955
1513 955
1514 955
1515 955
1516 955
1517 955
1518 955
1519 955
1520 955
1521 955
1522 955
1523 955
1524 955
1525 955
1526 955
1527 955
1528 955
1529 955
1530 955
1531 955
1532 955
1533 955
1458 956
1459 956
1460 956
1461 956
1462 956
1463 956
1464 956
1465 956
1466 956
1467 956
1468 956
1469 956
1470 956
1471 956
1472 956
1473 956
1474 956
1475 956
1476 956
1477 956
1478 956
1479 956
1480 956
1481 956
1482 956
1483 956
1484 956
1485 956
1486 956
1487 956
1488 956
1489 956
1490 956
1491 956
1492 956
1493 956
1494 956
1495 956
1496 956
1497 956
1498 956
1499 956
1500 956
1501 956
1502 956
1503 956
1504 956
1505 956
1506 956
1507 956
1508 956
1509 956
1510 956
1511 956
1512 956
1513 956
1514 956
1515 956
1516 956
1517 956
1518 956
1519 956
1520 956
1521 956
1522 956
1523 956
1524 956
1525 956
1526 956
1527 956
1528 956
1529 956
1530 956
1531 956
1532 956
1533 956
1458 957
1459 957
1460 957
1461 957
1462 957
1463 957
1464 957
1465 957
1466 957
1467 957
1468 957
1469 957
1470 957
1471 957
1472 957
1473 957
1474 957
1475 957
1476 957
1477 957
1478 957
1479 957
1480 957
1481 957
1482 957
1483 957
1484 957
1485 957
1486 957
1487 957
1488 957
1489 957
1490 957
1491 957
1492 957
1493 957
1494 957
1495 957
1496 957
1497 957
1498 957
1499 957
1500 957
1501 957
1502 957
1503 957
1504 957
1505 957
1506 957
1507 957
1508 957
1509 957
1510 957
1511 957
1512 957
1513 957
1514 957
1515 957
1516 957
1517 957
1518 957
1519 957
1520 957
1521 957
1522 957
1523 957
1524 957
1525 957
1526 957
1527 957
1528 957
1529 957
1530 957
1531 957
1532 957
1533 957
1458 958
1459 958
1460 958
1461 958
1462 958
1463 958
1464 958
1465 958
1466 958
1467 958
1468 958
1469 958
1470 958
1471 958
1472 958
1473 958
1474 958
1475 958
1476 958
1477 958
1478 958
1479 958
1480 958
1481 958
1482 958
1483 958
1484 958
1485 958
1486 958
1487 958
1488 958
1489 958
1490 958
1491 958
1492 958
1493 958
1494 958
1495 958
1496 958
1497 958
1498 958
1499 958
1500 958
1501 958
1502 958
1503 958
1504 958
1505 958
1506 958
1507 958
1508 958
1509 958
1510 958
1511 958
1512 958
1513 958
1514 958
1515 958
1516 958
1517 958
1518 958
1519 958
1520 958
1521 958
1522 958
1523 958
1524 958
1525 958
1526 958
1527 958
1528 958
1529 958
1530 958
1531 958
1532 958
1533 958
1458 959
1459 959
1460 959
1461 959
1462 959
1463 959
1464 959
1465 959
1466 959
1467 959
1468 959
1469 959
1470 959
1471 959
1472 959
1473 959
1474 959
1475 959
1476 959
1477 959
1478 959
1479 959
1480 959
1481 959
1482 959
1483 959
1484 959
1485 959
1486 959
1487 959
1488 959
1489 959
1490 959
1491 959
1492 959
1493 959
1494 959
1495 959
1496 959
1497 959
1498 959
1499 959
1500 959
1501 959
1502 959
1503 959
1504 959
1505 959
1506 959
1507 959
1508 959
1509 959
1510 959
1511 959
1512 959
1513 959
1514 959
1515 959
1516 959
1517 959
1518 959
1519 959
1520 959
1521 959
1522 959
1523 959
1524 959
1525 959
1526 959
1527 959
1528 959
1529 959
1530 959
1531 959
1532 959
1533 959
1458 960
1459 960
1460 960
1461 960
1462 960
1463 960
1464 960
1465 960
1466 960
1467 960
1468 960
1469 960
1470 960
1471 960
1472 960
1473 960
1474 960
1475 960
1476 960
1477 960
1478 960
1479 960
1480 960
1481 960
1482 960
1483 960
1484 960
1485 960
1486 960
1487 960
1488 960
1489 960
1490 960
1491 960
1492 960
1493 960
1494 960
1495 960
1496 960
1497 960
1498 960
1499 960
1500 960
1501 960
1502 960
1503 960
1504 960
1505 960
1506 960
1507 960
1508 960
1509 960
1510 960
1511 960
1512 960
1513 960
1514 960
1515 960
1516 960
1517 960
1518 960
1519 960
1520 960
1521 960
1522 960
1523 960
1524 960
1525 960
1526 960
1527 960
1528 960
1529 960
1530 960
1531 960
1532 960
1533 960
1458 961
1459 961
1460 961
1461 961
1462 961
1463 961
1464 961
1465 961
1466 961
1467 961
1468 961
1469 961
1470 961
1471 961
1472 961
1473 961
1474 961
1475 961
1476 961
1477 961
1478 961
1479 961
1480 961
1481 961
1482 961
1483 961
1484 961
1485 961
1486 961
1487 961
1488 961
1489 961
1490 961
1491 961
1492 961
1493 961
1494 961
1495 961
1496 961
1497 961
1498 961
1499 961
1500 961
1501 961
1502 961
1503 961
1504 961
1505 961
1506 961
1507 961
1508 961
1509 961
1510 961
1511 961
1512 961
1513 961
1514 961
1515 961
1516 961
1517 961
1518 961
1519 961
1520 961
1521 961
1522 961
1523 961
1524 961
1525 961
1526 961
1527 961
1528 961
1529 961
1530 961
1531 961
1532 961
1533 961
1458 962
1459 962
1460 962
1461 962
1462 962
1463 962
1464 962
1465 962
1466 962
1467 962
1468 962
1469 962
1470 962
1471 962
1472 962
1473 962
1474 962
1475 962
1476 962
1477 962
1478 962
1479 962
1480 962
1481 962
1482 962
1483 962
1484 962
1485 962
1486 962
1487 962
1488 962
1489 962
1490 962
1491 962
1492 962
1493 962
1494 962
1495 962
1496 962
1497 962
1498 962
1499 962
1500 962
1501 962
1502 962
1503 962
1504 962
1505 962
1506 962
1507 962
1508 962
1509 962
1510 962
1511 962
1512 962
1513 962
1514 962
1515 962
1516 962
1517 962
1518 962
1519 962
1520 962
1521 962
1522 962
1523 962
1524 962
1525 962
1526 962
1527 962
1528 962
1529 962
1530 962
1531 962
1532 962
1533 962
1458 963
1459 963
1460 963
1461 963
1462 963
1463 963
1464 963
1465 963
1466 963
1467 963
1468 963
1469 963
1470 963
1471 963
1472 963
1473 963
1474 963
1475 963
1476 963
1477 963
1478 963
1479 963
1480 963
1481 963
1482 963
1483 963
1484 963
1485 963
1486 963
1487 963
1488 963
1489 963
1490 963
1491 963
1492 963
1493 963
1494 963
1495 963
1496 963
1497 963
1498 963
1499 963
1500 963
1501 963
1502 963
1503 963
1504 963
1505 963
1506 963
1507 963
1508 963
1509 963
1510 963
1511 963
1512 963
1513 963
1514 963
1515 963
1516 963
1517 963
1518 963
1519 963
1520 963
1521 963
1522 963
1523 963
1524 963
1525 963
1526 963
1527 963
1528 963
1529 963
1530 963
1531 963
1532 963
1533 963
1458 964
1459 964
1460 964
1461 964
1462 964
1463 964
1464 964
1465 964
1466 964
1467 964
1468 964
1469 964
1470 964
1471 964
1472 964
1473 964
1474 964
1475 964
1476 964
1477 964
1478 964
1479 964
1480 964
1481 964
1482 964
1483 964
1484 964
1485 964
1486 964
1487 964
1488 964
1489 964
1490 964
1491 964
1492 964
1493 964
1494 964
1495 964
1496 964
1497 964
1498 964
1499 964
1500 964
1501 964
1502 964
1503 964
1504 964
1505 964
1506 964
1507 964
1508 964
1509 964
1510 964
1511 964
1512 964
1513 964
1514 964
1515 964
1516 964
1517 964
1518 964
1519 964
1520 964
1521 964
1522 964
1523 964
1524 964
1525 964
1526 964
1527 964
1528 964
1529 964
1530 964
1531 964
1532 964
1533 964
1458 965
1459 965
1460 965
1461 965
1462 965
1463 965
1464 965
1465 965
1466 965
1467 965
1468 965
1469 965
1470 965
1471 965
1472 965
1473 965
1474 965
1475 965
1476 965
1477 965
1478 965
1479 965
1480 965
1481 965
1482 965
1483 965
1484 965
1485 965
1486 965
1487 965
1488 965
1489 965
1490 965
1491 965
1492 965
1493 965
1494 965
1495 965
1496 965
1497 965
1498 965
1499 965
1500 965
1501 965
1502 965
1503 965
1504 965
1505 965
1506 965
1507 965
1508 965
1509 965
1510 965
1511 965
1512 965
1513 965
1514 965
1515 965
1516 965
1517 965
1518 965
1519 965
1520 965
1521 965
1522 965
1523 965
1524 965
1525 965
1526 965
1527 965
1528 965
1529 965
1530 965
1531 965
1532 965
1533 965
1458 966
1459 966
1460 966
1461 966
1462 966
1463 966
1464 966
1465 966
1466 966
1467 966
1468 966
1469 966
1470 966
1471 966
1472 966
1473 966
1474 966
1475 966
1476 966
1477 966
1478 966
1479 966
1480 966
1481 966
1482 966
1483 966
1484 966
1485 966
1486 966
1487 966
1488 966
1489 966
1490 966
1491 966
1492 966
1493 966
1494 966
1495 966
1496 966
1497 966
1498 966
1499 966
1500 966
1501 966
1502 966
1503 966
1504 966
1505 966
1506 966
1507 966
1508 966
1509 966
1510 966
1511 966
1512 966
1513 966
1514 966
1515 966
1516 966
1517 966
1518 966
1519 966
1520 966
1521 966
1522 966
1523 966
1524 966
1525 966
1526 966
1527 966
1528 966
1529 966
1530 966
1531 966
1532 966
1533 966
1458 967
1459 967
1460 967
1461 967
1462 967
1463 967
1464 967
1465 967
1466 967
1467 967
1468 967
1469 967
1470 967
1471 967
1472 967
1473 967
1474 967
1475 967
1476 967
1477 967
1478 967
1479 967
1480 967
1481 967
1482 967
1483 967
1484 967
1485 967
1486 967
1487 967
1488 967
1489 967
1490 967
1491 967
1492 967
1493 967
1494 967
1495 967
1496 967
1497 967
1498 967
1499 967
1500 967
1501 967
1502 967
1503 967
1504 967
1505 967
1506 967
1507 967
1508 967
1509 967
1510 967
1511 967
1512 967
1513 967
1514 967
1515 967
1516 967
1517 967
1518 967
1519 967
1520 967
1521 967
1522 967
1523 967
1524 967
1525 967
1526 967
1527 967
1528 967
1529 967
1530 967
1531 967
1532 967
1533 967
1458 968
1459 968
1460 968
1461 968
1462 968
1463 968
1464 968
1465 968
1466 968
1467 968
1468 968
1469 968
1470 968
1471 968
1472 968
1473 968
1474 968
1475 968
1476 968
1477 968
1478 968
1479 968
1480 968
1481 968
1482 968
1483 968
1484 968
1485 968
1486 968
1487 968
1488 968
1489 968
1490 968
1491 968
1492 968
1493 968
1494 968
1495 968
1496 968
1497 968
1498 968
1499 968
1500 968
1501 968
1502 968
1503 968
1504 968
1505 968
1506 968
1507 968
1508 968
1509 968
1510 968
1511 968
1512 968
1513 968
1514 968
1515 968
1516 968
1517 968
1518 968
1519 968
1520 968
1521 968
1522 968
1523 968
1524 968
1525 968
1526 968
1527 968
1528 968
1529 968
1530 968
1531 968
1532 968
1533 968
1458 969
1459 969
1460 969
1461 969
1462 969
1463 969
1464 969
1465 969
1466 969
1467 969
1468 969
1469 969
1470 969
1471 969
1472 969
1473 969
1474 969
1475 969
1476 969
1477 969
1478 969
1479 969
1480 969
1481 969
1482 969
1483 969
1484 969
1485 969
1486 969
1487 969
1488 969
1489 969
1490 969
1491 969
1492 969
1493 969
1494 969
1495 969
1496 969
1497 969
1498 969
1499 969
1500 969
1501 969
1502 969
1503 969
1504 969
1505 969
1506 969
1507 969
1508 969
1509 969
1510 969
1511 969
1512 969
1513 969
1514 969
1515 969
1516 969
1517 969
1518 969
1519 969
1520 969
1521 969
1522 969
1523 969
1524 969
1525 969
1526 969
1527 969
1528 969
1529 969
1530 969
1531 969
1532 969
1533 969
1458 970
1459 970
1460 970
1461 970
1462 970
1463 970
1464 970
1465 970
1466 970
1467 970
1468 970
1469 970
1470 970
1471 970
1472 970
1473 970
1474 970
1475 970
1476 970
1477 970
1478 970
1479 970
1480 970
1481 970
1482 970
1483 970
1484 970
1485 970
1486 970
1487 970
1488 970
1489 970
1490 970
1491 970
1492 970
1493 970
1494 970
1495 970
1496 970
1497 970
1498 970
1499 970
1500 970
1501 970
1502 970
1503 970
1504 970
1505 970
1506 970
1507 970
1508 970
1509 970
1510 970
1511 970
1512 970
1513 970
1514 970
1515 970
1516 970
1517 970
1518 970
1519 970
1520 970
1521 970
1522 970
1523 970
1524 970
1525 970
1526 970
1527 970
1528 970
1529 970
1530 970
1531 970
1532 970
1533 970
1458 971
1459 971
1460 971
1461 971
1462 971
1463 971
1464 971
1465 971
1466 971
1467 971
1468 971
1469 971
1470 971
1471 971
1472 971
1473 971
1474 971
1475 971
1476 971
1477 971
1478 971
1479 971
1480 971
1481 971
1482 971
1483 971
1484 971
1485 971
1486 971
1487 971
1488 971
1489 971
1490 971
1491 971
1492 971
1493 971
1494 971
1495 971
1496 971
1497 971
1498 971
1499 971
1500 971
1501 971
1502 971
1503 971
1504 971
1505 971
1506 971
1507 971
1508 971
1509 971
1510 971
1511 971
1512 971
1513 971
1514 971
1515 971
1516 971
1517 971
1518 971
1519 971
1520 971
1521 971
1522 971
1523 971
1524 971
1525 971
1526 971
1527 971
1528 971
1529 971
1530 971
1531 971
1532 971
1533 971
1458 972
1459 972
1460 972
1461 972
1462 972
1463 972
1464 972
1465 972
1466 972
1467 972
1468 972
1469 972
1470 972
1471 972
1472 972
1473 972
1474 972
1475 972
1476 972
1477 972
1478 972
1479 972
1480 972
1481 972
1482 972
1483 972
1484 972
1485 972
1486 972
1487 972
1488 972
1489 972
1490 972
1491 972
1492 972
1493 972
1494 972
1495 972
1496 972
1497 972
1498 972
1499 972
1500 972
1501 972
1502 972
1503 972
1504 972
1505 972
1506 972
1507 972
1508 972
1509 972
1510 972
1511 972
1512 972
1513 972
1514 972
1515 972
1516 972
1517 972
1518 972
1519 972
1520 972
1521 972
1522 972
1523 972
1524 972
1525 972
1526 972
1527 972
1528 972
1529 972
1530 972
1531 972
1532 972
1533 972
1458 973
1459 973
1460 973
1461 973
1462 973
1463 973
1464 973
1465 973
1466 973
1467 973
1468 973
1469 973
1470 973
1471 973
1472 973
1473 973
1474 973
1475 973
1476 973
1477 973
1478 973
1479 973
1480 973
1481 973
1482 973
1483 973
1484 973
1485 973
1486 973
1487 973
1488 973
1489 973
1490 973
1491 973
1492 973
1493 973
1494 973
1495 973
1496 973
1497 973
1498 973
1499 973
1500 973
1501 973
1502 973
1503 973
1504 973
1505 973
1506 973
1507 973
1508 973
1509 973
1510 973
1511 973
1512 973
1513 973
1514 973
1515 973
1516 973
1517 973
1518 973
1519 973
1520 973
1521 973
1522 973
1523 973
1524 973
1525 973
1526 973
1527 973
1528 973
1529 973
1530 973
1531 973
1532 973
1533 973
1458 974
1459 974
1460 974
1461 974
1462 974
1463 974
1464 974
1465 974
1466 974
1467 974
1468 974
1469 974
1470 974
1471 974
1472 974
1473 974
1474 974
1475 974
1476 974
1477 974
1478 974
1479 974
1480 974
1481 974
1482 974
1483 974
1484 974
1485 974
1486 974
1487 974
1488 974
1489 974
1490 974
1491 974
1492 974
1493 974
1494 974
1495 974
1496 974
1497 974
1498 974
1499 974
1500 974
1501 974
1502 974
1503 974
1504 974
1505 974
1506 974
1507 974
1508 974
1509 974
1510 974
1511 974
1512 974
1513 974
1514 974
1515 974
1516 974
1517 974
1518 974
1519 974
1520 974
1521 974
1522 974
1523 974
1524 974
1525 974
1526 974
1527 974
1528 974
1529 974
1530 974
1531 974
1532 974
1533 974
1458 975
1459 975
1460 975
1461 975
1462 975
1463 975
1464 975
1465 975
1466 975
1467 975
1468 975
1469 975
1470 975
1471 975
1472 975
1473 975
1474 975
1475 975
1476 975
1477 975
1478 975
1479 975
1480 975
1481 975
1482 975
1483 975
1484 975
1485 975
1486 975
1487 975
1488 975
1489 975
1490 975
1491 975
1492 975
1493 975
1494 975
1495 975
1496 975
1497 975
1498 975
1499 975
1500 975
1501 975
1502 975
1503 975
1504 975
1505 975
1506 975
1507 975
1508 975
1509 975
1510 975
1511 975
1512 975
1513 975
1514 975
1515 975
1516 975
1517 975
1518 975
1519 975
1520 975
1521 975
1522 975
1523 975
1524 975
1525 975
1526 975
1527 975
1528 975
1529 975
1530 975
1531 975
1532 975
1533 975
1458 976
1459 976
1460 976
1461 976
1462 976
1463 976
1464 976
1465 976
1466 976
1467 976
1468 976
1469 976
1470 976
1471 976
1472 976
1473 976
1474 976
1475 976
1476 976
1477 976
1478 976
1479 976
1480 976
1481 976
1482 976
1483 976
1484 976
1485 976
1486 976
1487 976
1488 976
1489 976
1490 976
1491 976
1492 976
1493 976
1494 976
1495 976
1496 976
1497 976
1498 976
1499 976
1500 976
1501 976
1502 976
1503 976
1504 976
1505 976
1506 976
1507 976
1508 976
1509 976
1510 976
1511 976
1512 976
1513 976
1514 976
1515 976
1516 976
1517 976
1518 976
1519 976
1520 976
1521 976
1522 976
1523 976
1524 976
1525 976
1526 976
1527 976
1528 976
1529 976
1530 976
1531 976
1532 976
1533 976
1458 977
1459 977
1460 977
1461 977
1462 977
1463 977
1464 977
1465 977
1466 977
1467 977
1468 977
1469 977
1470 977
1471 977
1472 977
1473 977
1474 977
1475 977
1476 977
1477 977
1478 977
1479 977
1480 977
1481 977
1482 977
1483 977
1484 977
1485 977
1486 977
1487 977
1488 977
1489 977
1490 977
1491 977
1492 977
1493 977
1494 977
1495 977
1496 977
1497 977
1498 977
1499 977
1500 977
1501 977
1502 977
1503 977
1504 977
1505 977
1506 977
1507 977
1508 977
1509 977
1510 977
1511 977
1512 977
1513 977
1514 977
1515 977
1516 977
1517 977
1518 977
1519 977
1520 977
1521 977
1522 977
1523 977
1524 977
1525 977
1526 977
1527 977
1528 977
1529 977
1530 977
1531 977
1532 977
1533 977
1458 978
1459 978
1460 978
1461 978
1462 978
1463 978
1464 978
1465 978
1466 978
1467 978
1468 978
1469 978
1470 978
1471 978
1472 978
1473 978
1474 978
1475 978
1476 978
1477 978
1478 978
1479 978
1480 978
1481 978
1482 978
1483 978
1484 978
1485 978
1486 978
1487 978
1488 978
1489 978
1490 978
1491 978
1492 978
1493 978
1494 978
1495 978
1496 978
1497 978
1498 978
1499 978
1500 978
1501 978
1502 978
1503 978
1504 978
1505 978
1506 978
1507 978
1508 978
1509 978
1510 978
1511 978
1512 978
1513 978
1514 978
1515 978
1516 978
1517 978
1518 978
1519 978
1520 978
1521 978
1522 978
1523 978
1524 978
1525 978
1526 978
1527 978
1528 978
1529 978
1530 978
1531 978
1532 978
1533 978
1458 979
1459 979
1460 979
1461 979
1462 979
1463 979
1464 979
1465 979
1466 979
1467 979
1468 979
1469 979
1470 979
1471 979
1472 979
1473 979
1474 979
1475 979
1476 979
1477 979
1478 979
1479 979
1480 979
1481 979
1482 979
1483 979
1484 979
1485 979
1486 979
1487 979
1488 979
1489 979
1490 979
1491 979
1492 979
1493 979
1494 979
1495 979
1496 979
1497 979
1498 979
1499 979
1500 979
1501 979
1502 979
1503 979
1504 979
1505 979
1506 979
1507 979
1508 979
1509 979
1510 979
1511 979
1512 979
1513 979
1514 979
1515 979
1516 979
1517 979
1518 979
1519 979
1520 979
1521 979
1522 979
1523 979
1524 979
1525 979
1526 979
1527 979
1528 979
1529 979
1530 979
1531 979
1532 979
1533 979
1458 980
1459 980
1460 980
1461 980
1462 980
1463 980
1464 980
1465 980
1466 980
1467 980
1468 980
1469 980
1470 980
1471 980
1472 980
1473 980
1474 980
1475 980
1476 980
1477 980
1478 980
1479 980
1480 980
1481 980
1482 980
1483 980
1484 980
1485 980
1486 980
1487 980
1488 980
1489 980
1490 980
1491 980
1492 980
1493 980
1494 980
1495 980
1496 980
1497 980
1498 980
1499 980
1500 980
1501 980
1502 980
1503 980
1504 980
1505 980
1506 980
1507 980
1508 980
1509 980
1510 980
1511 980
1512 980
1513 980
1514 980
1515 980
1516 980
1517 980
1518 980
1519 980
1520 980
1521 980
1522 980
1523 980
1524 980
1525 980
1526 980
1527 980
1528 980
1529 980
1530 980
1531 980
1532 980
1533 980
1458 981
1459 981
1460 981
1461 981
1462 981
1463 981
1464 981
1465 981
1466 981
1467 981
1468 981
1469 981
1470 981
1471 981
1472 981
1473 981
1474 981
1475 981
1476 981
1477 981
1478 981
1479 981
1480 981
1481 981
1482 981
1483 981
1484 981
1485 981
1486 981
1487 981
1488 981
1489 981
1490 981
1491 981
1492 981
1493 981
1494 981
1495 981
1496 981
1497 981
1498 981
1499 981
1500 981
1501 981
1502 981
1503 981
1504 981
1505 981
1506 981
1507 981
1508 981
1509 981
1510 981
1511 981
1512 981
1513 981
1514 981
1515 981
1516 981
1517 981
1518 981
1519 981
1520 981
1521 981
1522 981
1523 981
1524 981
1525 981
1526 981
1527 981
1528 981
1529 981
1530 981
1531 981
1532 981
1533 981
1458 982
1459 982
1460 982
1461 982
1462 982
1463 982
1464 982
1465 982
1466 982
1467 982
1468 982
1469 982
1470 982
1471 982
1472 982
1473 982
1474 982
1475 982
1476 982
1477 982
1478 982
1479 982
1480 982
1481 982
1482 982
1483 982
1484 982
1485 982
1486 982
1487 982
1488 982
1489 982
1490 982
1491 982
1492 982
1493 982
1494 982
1495 982
1496 982
1497 982
1498 982
1499 982
1500 982
1501 982
1502 982
1503 982
1504 982
1505 982
1506 982
1507 982
1508 982
1509 982
1510 982
1511 982
1512 982
1513 982
1514 982
1515 982
1516 982
1517 982
1518 982
1519 982
1520 982
1521 982
1522 982
1523 982
1524 982
1525 982
1526 982
1527 982
1528 982
1529 982
1530 982
1531 982
1532 982
1533 982
1458 983
1459 983
1460 983
1461 983
1462 983
1463 983
1464 983
1465 983
1466 983
1467 983
1468 983
1469 983
1470 983
1471 983
1472 983
1473 983
1474 983
1475 983
1476 983
1477 983
1478 983
1479 983
1480 983
1481 983
1482 983
1483 983
1484 983
1485 983
1486 983
1487 983
1488 983
1489 983
1490 983
1491 983
1492 983
1493 983
1494 983
1495 983
1496 983
1497 983
1498 983
1499 983
1500 983
1501 983
1502 983
1503 983
1504 983
1505 983
1506 983
1507 983
1508 983
1509 983
1510 983
1511 983
1512 983
1513 983
1514 983
1515 983
1516 983
1517 983
1518 983
1519 983
1520 983
1521 983
1522 983
1523 983
1524 983
1525 983
1526 983
1527 983
1528 983
1529 983
1530 983
1531 983
1532 983
1533 983
1578 1021
1579 1021
1580 1021
1581 1021
1582 1021
1583 1021
1584 1021
1585 1021
1586 1021
1587 1021
1588 1021
1589 1021
1590 1021
1591 1021
1592 1021
1593 1021
1594 1021
1595 1021
1596 1021
1597 1021
1598 1021
1599 1021
1600 1021
1601 1021
1602 1021
1603 1021
1604 1021
1605 1021
1606 1021
1607 1021
1608 1021
1609 1021
1610 1021
1611 1021
1612 1021
1613 1021
1614 1021
1615 1021
1616 1021
1617 1021
1618 1021
1619 1021
1620 1021
1621 1021
1622 1021
1623 1021
1624 1021
1625 1021
1626 1021
1627 1021
1628 1021
1629 1021
1630 1021
1631 1021
1632 1021
1633 1021
1634 1021
1635 1021
1636 1021
1637 1021
1638 1021
1639 1021
1640 1021
1641 1021
1642 1021
1643 1021
1644 1021
1645 1021
1646 1021
1647 1021
1648 1021
1649 1021
1650 1021
1651 1021
1652 1021
1653 1021
1578 1022
1579 1022
1580 1022
1581 1022
1582 1022
1583 1022
1584 1022
1585 1022
1586 1022
1587 1022
1588 1022
1589 1022
1590 1022
1591 1022
1592 1022
1593 1022
1594 1022
1595 1022
1596 1022
1597 1022
1598 1022
1599 1022
1600 1022
1601 1022
1602 1022
1603 1022
1604 1022
1605 1022
1606 1022
1607 1022
1608 1022
1609 1022
1610 1022
1611 1022
1612 1022
1613 1022
1614 1022
1615 1022
1616 1022
1617 1022
1618 1022
1619 1022
1620 1022
1621 1022
1622 1022
1623 1022
1624 1022
1625 1022
1626 1022
1627 1022
1628 1022
1629 1022
1630 1022
1631 1022
1632 1022
1633 1022
1634 1022
1635 1022
1636 1022
1637 1022
1638 1022
1639 1022
1640 1022
1641 1022
1642 1022
1643 1022
1644 1022
1645 1022
1646 1022
1647 1022
1648 1022
1649 1022
1650 1022
1651 1022
1652 1022
1653 1022
1578 1023
1579 1023
1580 1023
1581 1023
1582 1023
1583 1023
1584 1023
1585 1023
1586 1023
1587 1023
1588 1023
1589 1023
1590 1023
1591 1023
1592 1023
1593 1023
1594 1023
1595 1023
1596 1023
1597 1023
1598 1023
1599 1023
1600 1023
1601 1023
1602 1023
1603 1023
1604 1023
1605 1023
1606 1023
1607 1023
1608 1023
1609 1023
1610 1023
1611 1023
1612 1023
1613 1023
1614 1023
1615 1023
1616 1023
1617 1023
1618 1023
1619 1023
1620 1023
1621 1023
1622 1023
1623 1023
1624 1023
1625 1023
1626 1023
1627 1023
1628 1023
1629 1023
1630 1023
1631 1023
1632 1023
1633 1023
1634 1023
1635 1023
1636 1023
1637 1023
1638 1023
1639 1023
1640 1023
1641 1023
1642 1023
1643 1023
1644 1023
1645 1023
1646 1023
1647 1023
1648 1023
1649 1023
1650 1023
1651 1023
1652 1023
1653 1023
1578 1024
1579 1024
1580 1024
1581 1024
1582 1024
1583 1024
1584 1024
1585 1024
1586 1024
1587 1024
1588 1024
1589 1024
1590 1024
1591 1024
1592 1024
1593 1024
1594 1024
1595 1024
1596 1024
1597 1024
1598 1024
1599 1024
1600 1024
1601 1024
1602 1024
1603 1024
1604 1024
1605 1024
1606 1024
1607 1024
1608 1024
1609 1024
1610 1024
1611 1024
1612 1024
1613 1024
1614 1024
1615 1024
1616 1024
1617 1024
1618 1024
1619 1024
1620 1024
1621 1024
1622 1024
1623 1024
1624 1024
1625 1024
1626 1024
1627 1024
1628 1024
1629 1024
1630 1024
1631 1024
1632 1024
1633 1024
1634 1024
1635 1024
1636 1024
1637 1024
1638 1024
1639 1024
1640 1024
1641 1024
1642 1024
1643 1024
1644 1024
1645 1024
1646 1024
1647 1024
1648 1024
1649 1024
1650 1024
1651 1024
1652 1024
1653 1024
1578 1025
1579 1025
1580 1025
1581 1025
1582 1025
1583 1025
1584 1025
1585 1025
1586 1025
1587 1025
1588 1025
1589 1025
1590 1025
1591 1025
1592 1025
1593 1025
1594 1025
1595 1025
1596 1025
1597 1025
1598 1025
1599 1025
1600 1025
1601 1025
1602 1025
1603 1025
1604 1025
1605 1025
1606 1025
1607 1025
1608 1025
1609 1025
1610 1025
1611 1025
1612 1025
1613 1025
1614 1025
1615 1025
1616 1025
1617 1025
1618 1025
1619 1025
1620 1025
1621 1025
1622 1025
1623 1025
1624 1025
1625 1025
1626 1025
1627 1025
1628 1025
1629 1025
1630 1025
1631 1025
1632 1025
1633 1025
1634 1025
1635 1025
1636 1025
1637 1025
1638 1025
1639 1025
1640 1025
1641 1025
1642 1025
1643 1025
1644 1025
1645 1025
1646 1025
1647 1025
1648 1025
1649 1025
1650 1025
1651 1025
1652 1025
1653 1025
1578 1026
1579 1026
1580 1026
1581 1026
1582 1026
1583 1026
1584 1026
1585 1026
1586 1026
1587 1026
1588 1026
1589 1026
1590 1026
1591 1026
1592 1026
1593 1026
1594 1026
1595 1026
1596 1026
1597 1026
1598 1026
1599 1026
1600 1026
1601 1026
1602 1026
1603 1026
1604 1026
1605 1026
1606 1026
1607 1026
1608 1026
1609 1026
1610 1026
1611 1026
1612 1026
1613 1026
1614 1026
1615 1026
1616 1026
1617 1026
1618 1026
1619 1026
1620 1026
1621 1026
1622 1026
1623 1026
1624 1026
1625 1026
1626 1026
1627 1026
1628 1026
1629 1026
1630 1026
1631 1026
1632 1026
1633 1026
1634 1026
1635 1026
1636 1026
1637 1026
1638 1026
1639 1026
1640 1026
1641 1026
1642 1026
1643 1026
1644 1026
1645 1026
1646 1026
1647 1026
1648 1026
1649 1026
1650 1026
1651 1026
1652 1026
1653 1026
1578 1027
1579 1027
1580 1027
1581 1027
1582 1027
1583 1027
1584 1027
1585 1027
1586 1027
1587 1027
1588 1027
1589 1027
1590 1027
1591 1027
1592 1027
1593 1027
1594 1027
1595 1027
1596 1027
1597 1027
1598 1027
1599 1027
1600 1027
1601 1027
1602 1027
1603 1027
1604 1027
1605 1027
1606 1027
1607 1027
1608 1027
1609 1027
1610 1027
1611 1027
1612 1027
1613 1027
1614 1027
1615 1027
1616 1027
1617 1027
1618 1027
1619 1027
1620 1027
1621 1027
1622 1027
1623 1027
1624 1027
1625 1027
1626 1027
1627 1027
1628 1027
1629 1027
1630 1027
1631 1027
1632 1027
1633 1027
1634 1027
1635 1027
1636 1027
1637 1027
1638 1027
1639 1027
1640 1027
1641 1027
1642 1027
1643 1027
1644 1027
1645 1027
1646 1027
1647 1027
1648 1027
1649 1027
1650 1027
1651 1027
1652 1027
1653 1027
1578 1028
1579 1028
1580 1028
1581 1028
1582 1028
1583 1028
1584 1028
1585 1028
1586 1028
1587 1028
1588 1028
1589 1028
1590 1028
1591 1028
1592 1028
1593 1028
1594 1028
1595 1028
1596 1028
1597 1028
1598 1028
1599 1028
1600 1028
1601 1028
1602 1028
1603 1028
1604 1028
1605 1028
1606 1028
1607 1028
1608 1028
1609 1028
1610 1028
1611 1028
1612 1028
1613 1028
1614 1028
1615 1028
1616 1028
1617 1028
1618 1028
1619 1028
1620 1028
1621 1028
1622 1028
1623 1028
1624 1028
1625 1028
1626 1028
1627 1028
1628 1028
1629 1028
1630 1028
1631 1028
1632 1028
1633 1028
1634 1028
1635 1028
1636 1028
1637 1028
1638 1028
1639 1028
1640 1028
1641 1028
1642 1028
1643 1028
1644 1028
1645 1028
1646 1028
1647 1028
1648 1028
1649 1028
1650 1028
1651 1028
1652 1028
1653 1028
1578 1029
1579 1029
1580 1029
1581 1029
1582 1029
1583 1029
1584 1029
1585 1029
1586 1029
1587 1029
1588 1029
1589 1029
1590 1029
1591 1029
1592 1029
1593 1029
1594 1029
1595 1029
1596 1029
1597 1029
1598 1029
1599 1029
1600 1029
1601 1029
1602 1029
1603 1029
1604 1029
1605 1029
1606 1029
1607 1029
1608 1029
1609 1029
1610 1029
1611 1029
1612 1029
1613 1029
1614 1029
1615 1029
1616 1029
1617 1029
1618 1029
1619 1029
1620 1029
1621 1029
1622 1029
1623 1029
1624 1029
1625 1029
1626 1029
1627 1029
1628 1029
1629 1029
1630 1029
1631 1029
1632 1029
1633 1029
1634 1029
1635 1029
1636 1029
1637 1029
1638 1029
1639 1029
1640 1029
1641 1029
1642 1029
1643 1029
1644 1029
1645 1029
1646 1029
1647 1029
1648 1029
1649 1029
1650 1029
1651 1029
1652 1029
1653 1029
1578 1030
1579 1030
1580 1030
1581 1030
1582 1030
1583 1030
1584 1030
1585 1030
1586 1030
1587 1030
1588 1030
1589 1030
1590 1030
1591 1030
1592 1030
1593 1030
1594 1030
1595 1030
1596 1030
1597 1030
1598 1030
1599 1030
1600 1030
1601 1030
1602 1030
1603 1030
1604 1030
1605 1030
1606 1030
1607 1030
1608 1030
1609 1030
1610 1030
1611 1030
1612 1030
1613 1030
1614 1030
1615 1030
1616 1030
1617 1030
1618 1030
1619 1030
1620 1030
1621 1030
1622 1030
1623 1030
1624 1030
1625 1030
1626 1030
1627 1030
1628 1030
1629 1030
1630 1030
1631 1030
1632 1030
1633 1030
1634 1030
1635 1030
1636 1030
1637 1030
1638 1030
1639 1030
1640 1030
1641 1030
1642 1030
1643 1030
1644 1030
1645 1030
1646 1030
1647 1030
1648 1030
1649 1030
1650 1030
1651 1030
1652 1030
1653 1030
1578 1031
1579 1031
1580 1031
1581 1031
1582 1031
1583 1031
1584 1031
1585 1031
1586 1031
1587 1031
1588 1031
1589 1031
1590 1031
1591 1031
1592 1031
1593 1031
1594 1031
1595 1031
1596 1031
1597 1031
1598 1031
1599 1031
1600 1031
1601 1031
1602 1031
1603 1031
1604 1031
1605 1031
1606 1031
1607 1031
1608 1031
1609 1031
1610 1031
1611 1031
1612 1031
1613 1031
1614 1031
1615 1031
1616 1031
1617 1031
1618 1031
1619 1031
1620 1031
1621 1031
1622 1031
1623 1031
1624 1031
1625 1031
1626 1031
1627 1031
1628 1031
1629 1031
1630 1031
1631 1031
1632 1031
1633 1031
1634 1031
1635 1031
1636 1031
1637 1031
1638 1031
1639 1031
1640 1031
1641 1031
1642 1031
1643 1031
1644 1031
1645 1031
1646 1031
1647 1031
1648 1031
1649 1031
1650 1031
1651 1031
1652 1031
1653 1031
1578 1032
1579 1032
1580 1032
1581 1032
1582 1032
1583 1032
1584 1032
1585 1032
1586 1032
1587 1032
1588 1032
1589 1032
1590 1032
1591 1032
1592 1032
1593 1032
1594 1032
1595 1032
1596 1032
1597 1032
1598 1032
1599 1032
1600 1032
1601 1032
1602 1032
1603 1032
1604 1032
1605 1032
1606 1032
1607 1032
1608 1032
1609 1032
1610 1032
1611 1032
1612 1032
1613 1032
1614 1032
1615 1032
1616 1032
1617 1032
1618 1032
1619 1032
1620 1032
1621 1032
1622 1032
1623 1032
1624 1032
1625 1032
1626 1032
1627 1032
1628 1032
1629 1032
1630 1032
1631 1032
1632 1032
1633 1032
1634 1032
1635 1032
1636 1032
1637 1032
1638 1032
1639 1032
1640 1032
1641 1032
1642 1032
1643 1032
1644 1032
1645 1032
1646 1032
1647 1032
1648 1032
1649 1032
1650 1032
1651 1032
1652 1032
1653 1032
1578 1033
1579 1033
1580 1033
1581 1033
1582 1033
1583 1033
1584 1033
1585 1033
1586 1033
1587 1033
1588 1033
1589 1033
1590 1033
1591 1033
1592 1033
1593 1033
1594 1033
1595 1033
1596 1033
1597 1033
1598 1033
1599 1033
1600 1033
1601 1033
1602 1033
1603 1033
1604 1033
1605 1033
1606 1033
1607 1033
1608 1033
1609 1033
1610 1033
1611 1033
1612 1033
1613 1033
1614 1033
1615 1033
1616 1033
1617 1033
1618 1033
1619 1033
1620 1033
1621 1033
1622 1033
1623 1033
1624 1033
1625 1033
1626 1033
1627 1033
1628 1033
1629 1033
1630 1033
1631 1033
1632 1033
1633 1033
1634 1033
1635 1033
1636 1033
1637 1033
1638 1033
1639 1033
1640 1033
1641 1033
1642 1033
1643 1033
1644 1033
1645 1033
1646 1033
1647 1033
1648 1033
1649 1033
1650 1033
1651 1033
1652 1033
1653 1033
1578 1034
1579 1034
1580 1034
1581 1034
1582 1034
1583 1034
1584 1034
1585 1034
1586 1034
1587 1034
1588 1034
1589 1034
1590 1034
1591 1034
1592 1034
1593 1034
1594 1034
1595 1034
1596 1034
1597 1034
1598 1034
1599 1034
1600 1034
1601 1034
1602 1034
1603 1034
1604 1034
1605 1034
1606 1034
1607 1034
1608 1034
1609 1034
1610 1034
1611 1034
1612 1034
1613 1034
1614 1034
1615 1034
1616 1034
1617 1034
1618 1034
1619 1034
1620 1034
1621 1034
1622 1034
1623 1034
1624 1034
1625 1034
1626 1034
1627 1034
1628 1034
1629 1034
1630 1034
1631 1034
1632 1034
1633 1034
1634 1034
1635 1034
1636 1034
1637 1034
1638 1034
1639 1034
1640 1034
1641 1034
1642 1034
1643 1034
1644 1034
1645 1034
1646 1034
1647 1034
1648 1034
1649 1034
1650 1034
1651 1034
1652 1034
1653 1034
1578 1035
1579 1035
1580 1035
1581 1035
1582 1035
1583 1035
1584 1035
1585 1035
1586 1035
1587 1035
1588 1035
1589 1035
1590 1035
1591 1035
1592 1035
1593 1035
1594 1035
1595 1035
1596 1035
1597 1035
1598 1035
1599 1035
1600 1035
1601 1035
1602 1035
1603 1035
1604 1035
1605 1035
1606 1035
1607 1035
1608 1035
1609 1035
1610 1035
1611 1035
1612 1035
1613 1035
1614 1035
1615 1035
1616 1035
1617 1035
1618 1035
1619 1035
1620 1035
1621 1035
1622 1035
1623 1035
1624 1035
1625 1035
1626 1035
1627 1035
1628 1035
1629 1035
1630 1035
1631 1035
1632 1035
1633 1035
1634 1035
1635 1035
1636 1035
1637 1035
1638 1035
1639 1035
1640 1035
1641 1035
1642 1035
1643 1035
1644 1035
1645 1035
1646 1035
1647 1035
1648 1035
1649 1035
1650 1035
1651 1035
1652 1035
1653 1035
1578 1036
1579 1036
1580 1036
1581 1036
1582 1036
1583 1036
1584 1036
1585 1036
1586 1036
1587 1036
1588 1036
1589 1036
1590 1036
1591 1036
1592 1036
1593 1036
1594 1036
1595 1036
1596 1036
1597 1036
1598 1036
1599 1036
1600 1036
1601 1036
1602 1036
1603 1036
1604 1036
1605 1036
1606 1036
1607 1036
1608 1036
1609 1036
1610 1036
1611 1036
1612 1036
1613 1036
1614 1036
1615 1036
1616 1036
1617 1036
1618 1036
1619 1036
1620 1036
1621 1036
1622 1036
1623 1036
1624 1036
1625 1036
1626 1036
1627 1036
1628 1036
1629 1036
1630 1036
1631 1036
1632 1036
1633 1036
1634 1036
1635 1036
1636 1036
1637 1036
1638 1036
1639 1036
1640 1036
1641 1036
1642 1036
1643 1036
1644 1036
1645 1036
1646 1036
1647 1036
1648 1036
1649 1036
1650 1036
1651 1036
1652 1036
1653 1036
1578 1037
1579 1037
1580 1037
1581 1037
1582 1037
1583 1037
1584 1037
1585 1037
1586 1037
1587 1037
1588 1037
1589 1037
1590 1037
1591 1037
1592 1037
1593 1037
1594 1037
1595 1037
1596 1037
1597 1037
1598 1037
1599 1037
1600 1037
1601 1037
1602 1037
1603 1037
1604 1037
1605 1037
1606 1037
1607 1037
1608 1037
1609 1037
1610 1037
1611 1037
1612 1037
1613 1037
1614 1037
1615 1037
1616 1037
1617 1037
1618 1037
1619 1037
1620 1037
1621 1037
1622 1037
1623 1037
1624 1037
1625 1037
1626 1037
1627 1037
1628 1037
1629 1037
1630 1037
1631 1037
1632 1037
1633 1037
1634 1037
1635 1037
1636 1037
1637 1037
1638 1037
1639 1037
1640 1037
1641 1037
1642 1037
1643 1037
1644 1037
1645 1037
1646 1037
1647 1037
1648 1037
1649 1037
1650 1037
1651 1037
1652 1037
1653 1037
1578 1038
1579 1038
1580 1038
1581 1038
1582 1038
1583 1038
1584 1038
1585 1038
1586 1038
1587 1038
1588 1038
1589 1038
1590 1038
1591 1038
1592 1038
1593 1038
1594 1038
1595 1038
1596 1038
1597 1038
1598 1038
1599 1038
1600 1038
1601 1038
1602 1038
1603 1038
1604 1038
1605 1038
1606 1038
1607 1038
1608 1038
1609 1038
1610 1038
1611 1038
1612 1038
1613 1038
1614 1038
1615 1038
1616 1038
1617 1038
1618 1038
1619 1038
1620 1038
1621 1038
1622 1038
1623 1038
1624 1038
1625 1038
1626 1038
1627 1038
1628 1038
1629 1038
1630 1038
1631 1038
1632 1038
1633 1038
1634 1038
1635 1038
1636 1038
1637 1038
1638 1038
1639 1038
1640 1038
1641 1038
1642 1038
1643 1038
1644 1038
1645 1038
1646 1038
1647 1038
1648 1038
1649 1038
1650 1038
1651 1038
1652 1038
1653 1038
1578 1039
1579 1039
1580 1039
1581 1039
1582 1039
1583 1039
1584 1039
1585 1039
1586 1039
1587 1039
1588 1039
1589 1039
1590 1039
1591 1039
1592 1039
1593 1039
1594 1039
1595 1039
1596 1039
1597 1039
1598 1039
1599 1039
1600 1039
1601 1039
1602 1039
1603 1039
1604 1039
1605 1039
1606 1039
1607 1039
1608 1039
1609 1039
1610 1039
1611 1039
1612 1039
1613 1039
1614 1039
1615 1039
1616 1039
1617 1039
1618 1039
1619 1039
1620 1039
1621 1039
1622 1039
1623 1039
1624 1039
1625 1039
1626 1039
1627 1039
1628 1039
1629 1039
1630 1039
1631 1039
1632 1039
1633 1039
1634 1039
1635 1039
1636 1039
1637 1039
1638 1039
1639 1039
1640 1039
1641 1039
1642 1039
1643 1039
1644 1039
1645 1039
1646 1039
1647 1039
1648 1039
1649 1039
1650 1039
1651 1039
1652 1039
1653 1039
1578 1040
1579 1040
1580 1040
1581 1040
1582 1040
1583 1040
1584 1040
1585 1040
1586 1040
1587 1040
1588 1040
1589 1040
1590 1040
1591 1040
1592 1040
1593 1040
1594 1040
1595 1040
1596 1040
1597 1040
1598 1040
1599 1040
1600 1040
1601 1040
1602 1040
1603 1040
1604 1040
1605 1040
1606 1040
1607 1040
1608 1040
1609 1040
1610 1040
1611 1040
1612 1040
1613 1040
1614 1040
1615 1040
1616 1040
1617 1040
1618 1040
1619 1040
1620 1040
1621 1040
1622 1040
1623 1040
1624 1040
1625 1040
1626 1040
1627 1040
1628 1040
1629 1040
1630 1040
1631 1040
1632 1040
1633 1040
1634 1040
1635 1040
1636 1040
1637 1040
1638 1040
1639 1040
1640 1040
1641 1040
1642 1040
1643 1040
1644 1040
1645 1040
1646 1040
1647 1040
1648 1040
1649 1040
1650 1040
1651 1040
1652 1040
1653 1040
1578 1041
1579 1041
1580 1041
1581 1041
1582 1041
1583 1041
1584 1041
1585 1041
1586 1041
1587 1041
1588 1041
1589 1041
1590 1041
1591 1041
1592 1041
1593 1041
1594 1041
1595 1041
1596 1041
1597 1041
1598 1041
1599 1041
1600 1041
1601 1041
1602 1041
1603 1041
1604 1041
1605 1041
1606 1041
1607 1041
1608 1041
1609 1041
1610 1041
1611 1041
1612 1041
1613 1041
1614 1041
1615 1041
1616 1041
1617 1041
1618 1041
1619 1041
1620 1041
1621 1041
1622 1041
1623 1041
1624 1041
1625 1041
1626 1041
1627 1041
1628 1041
1629 1041
1630 1041
1631 1041
1632 1041
1633 1041
1634 1041
1635 1041
1636 1041
1637 1041
1638 1041
1639 1041
1640 1041
1641 1041
1642 1041
1643 1041
1644 1041
1645 1041
1646 1041
1647 1041
1648 1041
1649 1041
1650 1041
1651 1041
1652 1041
1653 1041
1578 1042
1579 1042
1580 1042
1581 1042
1582 1042
1583 1042
1584 1042
1585 1042
1586 1042
1587 1042
1588 1042
1589 1042
1590 1042
1591 1042
1592 1042
1593 1042
1594 1042
1595 1042
1596 1042
1597 1042
1598 1042
1599 1042
1600 1042
1601 1042
1602 1042
1603 1042
1604 1042
1605 1042
1606 1042
1607 1042
1608 1042
1609 1042
1610 1042
1611 1042
1612 1042
1613 1042
1614 1042
1615 1042
1616 1042
1617 1042
1618 1042
1619 1042
1620 1042
1621 1042
1622 1042
1623 1042
1624 1042
1625 1042
1626 1042
1627 1042
1628 1042
1629 1042
1630 1042
1631 1042
1632 1042
1633 1042
1634 1042
1635 1042
1636 1042
1637 1042
1638 1042
1639 1042
1640 1042
1641 1042
1642 1042
1643 1042
1644 1042
1645 1042
1646 1042
1647 1042
1648 1042
1649 1042
1650 1042
1651 1042
1652 1042
1653 1042
1578 1043
1579 1043
1580 1043
1581 1043
1582 1043
1583 1043
1584 1043
1585 1043
1586 1043
1587 1043
1588 1043
1589 1043
1590 1043
1591 1043
1592 1043
1593 1043
1594 1043
1595 1043
1596 1043
1597 1043
1598 1043
1599 1043
1600 1043
1601 1043
1602 1043
1603 1043
1604 1043
1605 1043
1606 1043
1607 1043
1608 1043
1609 1043
1610 1043
1611 1043
1612 1043
1613 1043
1614 1043
1615 1043
1616 1043
1617 1043
1618 1043
1619 1043
1620 1043
1621 1043
1622 1043
1623 1043
1624 1043
1625 1043
1626 1043
1627 1043
1628 1043
1629 1043
1630 1043
1631 1043
1632 1043
1633 1043
1634 1043
1635 1043
1636 1043
1637 1043
1638 1043
1639 1043
1640 1043
1641 1043
1642 1043
1643 1043
1644 1043
1645 1043
1646 1043
1647 1043
1648 1043
1649 1043
1650 1043
1651 1043
1652 1043
1653 1043
1578 1044
1579 1044
1580 1044
1581 1044
1582 1044
1583 1044
1584 1044
1585 1044
1586 1044
1587 1044
1588 1044
1589 1044
1590 1044
1591 1044
1592 1044
1593 1044
1594 1044
1595 1044
1596 1044
1597 1044
1598 1044
1599 1044
1600 1044
1601 1044
1602 1044
1603 1044
1604 1044
1605 1044
1606 1044
1607 1044
1608 1044
1609 1044
1610 1044
1611 1044
1612 1044
1613 1044
1614 1044
1615 1044
1616 1044
1617 1044
1618 1044
1619 1044
1620 1044
1621 1044
1622 1044
1623 1044
1624 1044
1625 1044
1626 1044
1627 1044
1628 1044
1629 1044
1630 1044
1631 1044
1632 1044
1633 1044
1634 1044
1635 1044
1636 1044
1637 1044
1638 1044
1639 1044
1640 1044
1641 1044
1642 1044
1643 1044
1644 1044
1645 1044
1646 1044
1647 1044
1648 1044
1649 1044
1650 1044
1651 1044
1652 1044
1653 1044
1578 1045
1579 1045
1580 1045
1581 1045
1582 1045
1583 1045
1584 1045
1585 1045
1586 1045
1587 1045
1588 1045
1589 1045
1590 1045
1591 1045
1592 1045
1593 1045
1594 1045
1595 1045
1596 1045
1597 1045
1598 1045
1599 1045
1600 1045
1601 1045
1602 1045
1603 1045
1604 1045
1605 1045
1606 1045
1607 1045
1608 1045
1609 1045
1610 1045
1611 1045
1612 1045
1613 1045
1614 1045
1615 1045
1616 1045
1617 1045
1618 1045
1619 1045
1620 1045
1621 1045
1622 1045
1623 1045
1624 1045
1625 1045
1626 1045
1627 1045
1628 1045
1629 1045
1630 1045
1631 1045
1632 1045
1633 1045
1634 1045
1635 1045
1636 1045
1637 1045
1638 1045
1639 1045
1640 1045
1641 1045
1642 1045
1643 1045
1644 1045
1645 1045
1646 1045
1647 1045
1648 1045
1649 1045
1650 1045
1651 1045
1652 1045
1653 1045
1578 1046
1579 1046
1580 1046
1581 1046
1582 1046
1583 1046
1584 1046
1585 1046
1586 1046
1587 1046
1588 1046
1589 1046
1590 1046
1591 1046
1592 1046
1593 1046
1594 1046
1595 1046
1596 1046
1597 1046
1598 1046
1599 1046
1600 1046
1601 1046
1602 1046
1603 1046
1604 1046
1605 1046
1606 1046
1607 1046
1608 1046
1609 1046
1610 1046
1611 1046
1612 1046
1613 1046
1614 1046
1615 1046
1616 1046
1617 1046
1618 1046
1619 1046
1620 1046
1621 1046
1622 1046
1623 1046
1624 1046
1625 1046
1626 1046
1627 1046
1628 1046
1629 1046
1630 1046
1631 1046
1632 1046
1633 1046
1634 1046
1635 1046
1636 1046
1637 1046
1638 1046
1639 1046
1640 1046
1641 1046
1642 1046
1643 1046
1644 1046
1645 1046
1646 1046
1647 1046
1648 1046
1649 1046
1650 1046
1651 1046
1652 1046
1653 1046
1578 1047
1579 1047
1580 1047
1581 1047
1582 1047
1583 1047
1584 1047
1585 1047
1586 1047
1587 1047
1588 1047
1589 1047
1590 1047
1591 1047
1592 1047
1593 1047
1594 1047
1595 1047
1596 1047
1597 1047
1598 1047
1599 1047
1600 1047
1601 1047
1602 1047
1603 1047
1604 1047
1605 1047
1606 1047
1607 1047
1608 1047
1609 1047
1610 1047
1611 1047
1612 1047
1613 1047
1614 1047
1615 1047
1616 1047
1617 1047
1618 1047
1619 1047
1620 1047
1621 1047
1622 1047
1623 1047
1624 1047
1625 1047
1626 1047
1627 1047
1628 1047
1629 1047
1630 1047
1631 1047
1632 1047
1633 1047
1634 1047
1635 1047
1636 1047
1637 1047
1638 1047
1639 1047
1640 1047
1641 1047
1642 1047
1643 1047
1644 1047
1645 1047
1646 1047
1647 1047
1648 1047
1649 1047
1650 1047
1651 1047
1652 1047
1653 1047
1578 1048
1579 1048
1580 1048
1581 1048
1582 1048
1583 1048
1584 1048
1585 1048
1586 1048
1587 1048
1588 1048
1589 1048
1590 1048
1591 1048
1592 1048
1593 1048
1594 1048
1595 1048
1596 1048
1597 1048
1598 1048
1599 1048
1600 1048
1601 1048
1602 1048
1603 1048
1604 1048
1605 1048
1606 1048
1607 1048
1608 1048
1609 1048
1610 1048
1611 1048
1612 1048
1613 1048
1614 1048
1615 1048
1616 1048
1617 1048
1618 1048
1619 1048
1620 1048
1621 1048
1622 1048
1623 1048
1624 1048
1625 1048
1626 1048
1627 1048
1628 1048
1629 1048
1630 1048
1631 1048
1632 1048
1633 1048
1634 1048
1635 1048
1636 1048
1637 1048
1638 1048
1639 1048
1640 1048
1641 1048
1642 1048
1643 1048
1644 1048
1645 1048
1646 1048
1647 1048
1648 1048
1649 1048
1650 1048
1651 1048
1652 1048
1653 1048
1578 1049
1579 1049
1580 1049
1581 1049
1582 1049
1583 1049
1584 1049
1585 1049
1586 1049
1587 1049
1588 1049
1589 1049
1590 1049
1591 1049
1592 1049
1593 1049
1594 1049
1595 1049
1596 1049
1597 1049
1598 1049
1599 1049
1600 1049
1601 1049
1602 1049
1603 1049
1604 1049
1605 1049
1606 1049
1607 1049
1608 1049
1609 1049
1610 1049
1611 1049
1612 1049
1613 1049
1614 1049
1615 1049
1616 1049
1617 1049
1618 1049
1619 1049
1620 1049
1621 1049
1622 1049
1623 1049
1624 1049
1625 1049
1626 1049
1627 1049
1628 1049
1629 1049
1630 1049
1631 1049
1632 1049
1633 1049
1634 1049
1635 1049
1636 1049
1637 1049
1638 1049
1639 1049
1640 1049
1641 1049
1642 1049
1643 1049
1644 1049
1645 1049
1646 1049
1647 1049
1648 1049
1649 1049
1650 1049
1651 1049
1652 1049
1653 1049
1578 1050
1579 1050
1580 1050
1581 1050
1582 1050
1583 1050
1584 1050
1585 1050
1586 1050
1587 1050
1588 1050
1589 1050
1590 1050
1591 1050
1592 1050
1593 1050
1594 1050
1595 1050
1596 1050
1597 1050
1598 1050
1599 1050
1600 1050
1601 1050
1602 1050
1603 1050
1604 1050
1605 1050
1606 1050
1607 1050
1608 1050
1609 1050
1610 1050
1611 1050
1612 1050
1613 1050
1614 1050
1615 1050
1616 1050
1617 1050
1618 1050
1619 1050
1620 1050
1621 1050
1622 1050
1623 1050
1624 1050
1625 1050
1626 1050
1627 1050
1628 1050
1629 1050
1630 1050
1631 1050
1632 1050
1633 1050
1634 1050
1635 1050
1636 1050
1637 1050
1638 1050
1639 1050
1640 1050
1641 1050
1642 1050
1643 1050
1644 1050
1645 1050
1646 1050
1647 1050
1648 1050
1649 1050
1650 1050
1651 1050
1652 1050
1653 1050
1578 1051
1579 1051
1580 1051
1581 1051
1582 1051
1583 1051
1584 1051
1585 1051
1586 1051
1587 1051
1588 1051
1589 1051
1590 1051
1591 1051
1592 1051
1593 1051
1594 1051
1595 1051
1596 1051
1597 1051
1598 1051
1599 1051
1600 1051
1601 1051
1602 1051
1603 1051
1604 1051
1605 1051
1606 1051
1607 1051
1608 1051
1609 1051
1610 1051
1611 1051
1612 1051
1613 1051
1614 1051
1615 1051
1616 1051
1617 1051
1618 1051
1619 1051
1620 1051
1621 1051
1622 1051
1623 1051
1624 1051
1625 1051
1626 1051
1627 1051
1628 1051
1629 1051
1630 1051
1631 1051
1632 1051
1633 1051
1634 1051
1635 1051
1636 1051
1637 1051
1638 1051
1639 1051
1640 1051
1641 1051
1642 1051
1643 1051
1644 1051
1645 1051
1646 1051
1647 1051
1648 1051
1649 1051
1650 1051
1651 1051
1652 1051
1653 1051
1578 1052
1579 1052
1580 1052
1581 1052
1582 1052
1583 1052
1584 1052
1585 1052
1586 1052
1587 1052
1588 1052
1589 1052
1590 1052
1591 1052
1592 1052
1593 1052
1594 1052
1595 1052
1596 1052
1597 1052
1598 1052
1599 1052
1600 1052
1601 1052
1602 1052
1603 1052
1604 1052
1605 1052
1606 1052
1607 1052
1608 1052
1609 1052
1610 1052
1611 1052
1612 1052
1613 1052
1614 1052
1615 1052
1616 1052
1617 1052
1618 1052
1619 1052
1620 1052
1621 1052
1622 1052
1623 1052
1624 1052
1625 1052
1626 1052
1627 1052
1628 1052
1629 1052
1630 1052
1631 1052
1632 1052
1633 1052
1634 1052
1635 1052
1636 1052
1637 1052
1638 1052
1639 1052
1640 1052
1641 1052
1642 1052
1643 1052
1644 1052
1645 1052
1646 1052
1647 1052
1648 1052
1649 1052
1650 1052
1651 1052
1652 1052
1653 1052
1578 1053
1579 1053
1580 1053
1581 1053
1582 1053
1583 1053
1584 1053
1585 1053
1586 1053
1587 1053
1588 1053
1589 1053
1590 1053
1591 1053
1592 1053
1593 1053
1594 1053
1595 1053
1596 1053
1597 1053
1598 1053
1599 1053
1600 1053
1601 1053
1602 1053
1603 1053
1604 1053
1605 1053
1606 1053
1607 1053
1608 1053
1609 1053
1610 1053
1611 1053
1612 1053
1613 1053
1614 1053
1615 1053
1616 1053
1617 1053
1618 1053
1619 1053
1620 1053
1621 1053
1622 1053
1623 1053
1624 1053
1625 1053
1626 1053
1627 1053
1628 1053
1629 1053
1630 1053
1631 1053
1632 1053
1633 1053
1634 1053
1635 1053
1636 1053
1637 1053
1638 1053
1639 1053
1640 1053
1641 1053
1642 1053
1643 1053
1644 1053
1645 1053
1646 1053
1647 1053
1648 1053
1649 1053
1650 1053
1651 1053
1652 1053
1653 1053
1578 1054
1579 1054
1580 1054
1581 1054
1582 1054
1583 1054
1584 1054
1585 1054
1586 1054
1587 1054
1588 1054
1589 1054
1590 1054
1591 1054
1592 1054
1593 1054
1594 1054
1595 1054
1596 1054
1597 1054
1598 1054
1599 1054
1600 1054
1601 1054
1602 1054
1603 1054
1604 1054
1605 1054
1606 1054
1607 1054
1608 1054
1609 1054
1610 1054
1611 1054
1612 1054
1613 1054
1614 1054
1615 1054
1616 1054
1617 1054
1618 1054
1619 1054
1620 1054
1621 1054
1622 1054
1623 1054
1624 1054
1625 1054
1626 1054
1627 1054
1628 1054
1629 1054
1630 1054
1631 1054
1632 1054
1633 1054
1634 1054
1635 1054
1636 1054
1637 1054
1638 1054
1639 1054
1640 1054
1641 1054
1642 1054
1643 1054
1644 1054
1645 1054
1646 1054
1647 1054
1648 1054
1649 1054
1650 1054
1651 1054
1652 1054
1653 1054
1578 1055
1579 1055
1580 1055
1581 1055
1582 1055
1583 1055
1584 1055
1585 1055
1586 1055
1587 1055
1588 1055
1589 1055
1590 1055
1591 1055
1592 1055
1593 1055
1594 1055
1595 1055
1596 1055
1597 1055
1598 1055
1599 1055
1600 1055
1601 1055
1602 1055
1603 1055
1604 1055
1605 1055
1606 1055
1607 1055
1608 1055
1609 1055
1610 1055
1611 1055
1612 1055
1613 1055
1614 1055
1615 1055
1616 1055
1617 1055
1618 1055
1619 1055
1620 1055
1621 1055
1622 1055
1623 1055
1624 1055
1625 1055
1626 1055
1627 1055
1628 1055
1629 1055
1630 1055
1631 1055
1632 1055
1633 1055
1634 1055
1635 1055
1636 1055
1637 1055
1638 1055
1639 1055
1640 1055
1641 1055
1642 1055
1643 1055
1644 1055
1645 1055
1646 1055
1647 1055
1648 1055
1649 1055
1650 1055
1651 1055
1652 1055
1653 1055
1578 1056
1579 1056
1580 1056
1581 1056
1582 1056
1583 1056
1584 1056
1585 1056
1586 1056
1587 1056
1588 1056
1589 1056
1590 1056
1591 1056
1592 1056
1593 1056
1594 1056
1595 1056
1596 1056
1597 1056
1598 1056
1599 1056
1600 1056
1601 1056
1602 1056
1603 1056
1604 1056
1605 1056
1606 1056
1607 1056
1608 1056
1609 1056
1610 1056
1611 1056
1612 1056
1613 1056
1614 1056
1615 1056
1616 1056
1617 1056
1618 1056
1619 1056
1620 1056
1621 1056
1622 1056
1623 1056
1624 1056
1625 1056
1626 1056
1627 1056
1628 1056
1629 1056
1630 1056
1631 1056
1632 1056
1633 1056
1634 1056
1635 1056
1636 1056
1637 1056
1638 1056
1639 1056
1640 1056
1641 1056
1642 1056
1643 1056
1644 1056
1645 1056
1646 1056
1647 1056
1648 1056
1649 1056
1650 1056
1651 1056
1652 1056
1653 1056
1578 1057
1579 1057
1580 1057
1581 1057
1582 1057
1583 1057
1584 1057
1585 1057
1586 1057
1587 1057
1588 1057
1589 1057
1590 1057
1591 1057
1592 1057
1593 1057
1594 1057
1595 1057
1596 1057
1597 1057
1598 1057
1599 1057
1600 1057
1601 1057
1602 1057
1603 1057
1604 1057
1605 1057
1606 1057
1607 1057
1608 1057
1609 1057
1610 1057
1611 1057
1612 1057
1613 1057
1614 1057
1615 1057
1616 1057
1617 1057
1618 1057
1619 1057
1620 1057
1621 1057
1622 1057
1623 1057
1624 1057
1625 1057
1626 1057
1627 1057
1628 1057
1629 1057
1630 1057
1631 1057
1632 1057
1633 1057
1634 1057
1635 1057
1636 1057
1637 1057
1638 1057
1639 1057
1640 1057
1641 1057
1642 1057
1643 1057
1644 1057
1645 1057
1646 1057
1647 1057
1648 1057
1649 1057
1650 1057
1651 1057
1652 1057
1653 1057
1578 1058
1579 1058
1580 1058
1581 1058
1582 1058
1583 1058
1584 1058
1585 1058
1586 1058
1587 1058
1588 1058
1589 1058
1590 1058
1591 1058
1592 1058
1593 1058
1594 1058
1595 1058
1596 1058
1597 1058
1598 1058
1599 1058
1600 1058
1601 1058
1602 1058
1603 1058
1604 1058
1605 1058
1606 1058
1607 1058
1608 1058
1609 1058
1610 1058
1611 1058
1612 1058
1613 1058
1614 1058
1615 1058
1616 1058
1617 1058
1618 1058
1619 1058
1620 1058
1621 1058
1622 1058
1623 1058
1624 1058
1625 1058
1626 1058
1627 1058
1628 1058
1629 1058
1630 1058
1631 1058
1632 1058
1633 1058
1634 1058
1635 1058
1636 1058
1637 1058
1638 1058
1639 1058
1640 1058
1641 1058
1642 1058
1643 1058
1644 1058
1645 1058
1646 1058
1647 1058
1648 1058
1649 1058
1650 1058
1651 1058
1652 1058
1653 1058
1578 1059
1579 1059
1580 1059
1581 1059
1582 1059
1583 1059
1584 1059
1585 1059
1586 1059
1587 1059
1588 1059
1589 1059
1590 1059
1591 1059
1592 1059
1593 1059
1594 1059
1595 1059
1596 1059
1597 1059
1598 1059
1599 1059
1600 1059
1601 1059
1602 1059
1603 1059
1604 1059
1605 1059
1606 1059
1607 1059
1608 1059
1609 1059
1610 1059
1611 1059
1612 1059
1613 1059
1614 1059
1615 1059
1616 1059
1617 1059
1618 1059
1619 1059
1620 1059
1621 1059
1622 1059
1623 1059
1624 1059
1625 1059
1626 1059
1627 1059
1628 1059
1629 1059
1630 1059
1631 1059
1632 1059
1633 1059
1634 1059
1635 1059
1636 1059
1637 1059
1638 1059
1639 1059
1640 1059
1641 1059
1642 1059
1643 1059
1644 1059
1645 1059
1646 1059
1647 1059
1648 1059
1649 1059
1650 1059
1651 1059
1652 1059
1653 1059
1578 1060
1579 1060
1580 1060
1581 1060
1582 1060
1583 1060
1584 1060
1585 1060
1586 1060
1587 1060
1588 1060
1589 1060
1590 1060
1591 1060
1592 1060
1593 1060
1594 1060
1595 1060
1596 1060
1597 1060
1598 1060
1599 1060
1600 1060
1601 1060
1602 1060
1603 1060
1604 1060
1605 1060
1606 1060
1607 1060
1608 1060
1609 1060
1610 1060
1611 1060
1612 1060
1613 1060
1614 1060
1615 1060
1616 1060
1617 1060
1618 1060
1619 1060
1620 1060
1621 1060
1622 1060
1623 1060
1624 1060
1625 1060
1626 1060
1627 1060
1628 1060
1629 1060
1630 1060
1631 1060
1632 1060
1633 1060
1634 1060
1635 1060
1636 1060
1637 1060
1638 1060
1639 1060
1640 1060
1641 1060
1642 1060
1643 1060
1644 1060
1645 1060
1646 1060
1647 1060
1648 1060
1649 1060
1650 1060
1651 1060
1652 1060
1653 1060
1578 1061
1579 1061
1580 1061
1581 1061
1582 1061
1583 1061
1584 1061
1585 1061
1586 1061
1587 1061
1588 1061
1589 1061
1590 1061
1591 1061
1592 1061
1593 1061
1594 1061
1595 1061
1596 1061
1597 1061
1598 1061
1599 1061
1600 1061
1601 1061
1602 1061
1603 1061
1604 1061
1605 1061
1606 1061
1607 1061
1608 1061
1609 1061
1610 1061
1611 1061
1612 1061
1613 1061
1614 1061
1615 1061
1616 1061
1617 1061
1618 1061
1619 1061
1620 1061
1621 1061
1622 1061
1623 1061
1624 1061
1625 1061
1626 1061
1627 1061
1628 1061
1629 1061
1630 1061
1631 1061
1632 1061
1633 1061
1634 1061
1635 1061
1636 1061
1637 1061
1638 1061
1639 1061
1640 1061
1641 1061
1642 1061
1643 1061
1644 1061
1645 1061
1646 1061
1647 1061
1648 1061
1649 1061
1650 1061
1651 1061
1652 1061
1653 1061
1578 1062
1579 1062
1580 1062
1581 1062
1582 1062
1583 1062
1584 1062
1585 1062
1586 1062
1587 1062
1588 1062
1589 1062
1590 1062
1591 1062
1592 1062
1593 1062
1594 1062
1595 1062
1596 1062
1597 1062
1598 1062
1599 1062
1600 1062
1601 1062
1602 1062
1603 1062
1604 1062
1605 1062
1606 1062
1607 1062
1608 1062
1609 1062
1610 1062
1611 1062
1612 1062
1613 1062
1614 1062
1615 1062
1616 1062
1617 1062
1618 1062
1619 1062
1620 1062
1621 1062
1622 1062
1623 1062
1624 1062
1625 1062
1626 1062
1627 1062
1628 1062
1629 1062
1630 1062
1631 1062
1632 1062
1633 1062
1634 1062
1635 1062
1636 1062
1637 1062
1638 1062
1639 1062
1640 1062
1641 1062
1642 1062
1643 1062
1644 1062
1645 1062
1646 1062
1647 1062
1648 1062
1649 1062
1650 1062
1651 1062
1652 1062
1653 1062
1578 1063
1579 1063
1580 1063
1581 1063
1582 1063
1583 1063
1584 1063
1585 1063
1586 1063
1587 1063
1588 1063
1589 1063
1590 1063
1591 1063
1592 1063
1593 1063
1594 1063
1595 1063
1596 1063
1597 1063
1598 1063
1599 1063
1600 1063
1601 1063
1602 1063
1603 1063
1604 1063
1605 1063
1606 1063
1607 1063
1608 1063
1609 1063
1610 1063
1611 1063
1612 1063
1613 1063
1614 1063
1615 1063
1616 1063
1617 1063
1618 1063
1619 1063
1620 1063
1621 1063
1622 1063
1623 1063
1624 1063
1625 1063
1626 1063
1627 1063
1628 1063
1629 1063
1630 1063
1631 1063
1632 1063
1633 1063
1634 1063
1635 1063
1636 1063
1637 1063
1638 1063
1639 1063
1640 1063
1641 1063
1642 1063
1643 1063
1644 1063
1645 1063
1646 1063
1647 1063
1648 1063
1649 1063
1650 1063
1651 1063
1652 1063
1653 1063
1578 1064
1579 1064
1580 1064
1581 1064
1582 1064
1583 1064
1584 1064
1585 1064
1586 1064
1587 1064
1588 1064
1589 1064
1590 1064
1591 1064
1592 1064
1593 1064
1594 1064
1595 1064
1596 1064
1597 1064
1598 1064
1599 1064
1600 1064
1601 1064
1602 1064
1603 1064
1604 1064
1605 1064
1606 1064
1607 1064
1608 1064
1609 1064
1610 1064
1611 1064
1612 1064
1613 1064
1614 1064
1615 1064
1616 1064
1617 1064
1618 1064
1619 1064
1620 1064
1621 1064
1622 1064
1623 1064
1624 1064
1625 1064
1626 1064
1627 1064
1628 1064
1629 1064
1630 1064
1631 1064
1632 1064
1633 1064
1634 1064
1635 1064
1636 1064
1637 1064
1638 1064
1639 1064
1640 1064
1641 1064
1642 1064
1643 1064
1644 1064
1645 1064
1646 1064
1647 1064
1648 1064
1649 1064
1650 1064
1651 1064
1652 1064
1653 1064
1698 1102
1699 1102
1700 1102
1701 1102
1702 1102
1703 1102
1704 1102
1705 1102
1706 1102
1707 1102
1708 1102
1709 1102
1710 1102
1711 1102
1712 1102
1713 1102
1714 1102
1715 1102
1716 1102
1717 1102
1718 1102
1719 1102
1720 1102
1721 1102
1722 1102
1723 1102
1724 1102
1725 1102
1726 1102
1727 1102
1728 1102
1729 1102
1730 1102
1731 1102
1732 1102
1733 1102
1734 1102
1735 1102
1736 1102
1737 1102
1738 1102
1739 1102
1740 1102
1741 1102
1742 1102
1743 1102
1744 1102
1745 1102
1746 1102
1747 1102
1748 1102
1749 1102
1750 1102
1751 1102
1752 1102
1753 1102
1754 1102
1755 1102
1756 1102
1757 1102
1758 1102
1759 1102
1760 1102
1761 1102
1762 1102
1763 1102
1764 1102
1765 1102
1766 1102
1767 1102
1768 1102
1769 1102
1770 1102
1771 1102
1772 1102
1773 1102
1698 1103
1699 1103
1700 1103
1701 1103
1702 1103
1703 1103
1704 1103
1705 1103
1706 1103
1707 1103
1708 1103
1709 1103
1710 1103
1711 1103
1712 1103
1713 1103
1714 1103
1715 1103
1716 1103
1717 1103
1718 1103
1719 1103
1720 1103
1721 1103
1722 1103
1723 1103
1724 1103
1725 1103
1726 1103
1727 1103
1728 1103
1729 1103
1730 1103
1731 1103
1732 1103
1733 1103
1734 1103
1735 1103
1736 1103
1737 1103
1738 1103
1739 1103
1740 1103
1741 1103
1742 1103
1743 1103
1744 1103
1745 1103
1746 1103
1747 1103
1748 1103
1749 1103
1750 1103
1751 1103
1752 1103
1753 1103
1754 1103
1755 1103
1756 1103
1757 1103
1758 1103
1759 1103
1760 1103
1761 1103
1762 1103
1763 1103
1764 1103
1765 1103
1766 1103
1767 1103
1768 1103
1769 1103
1770 1103
1771 1103
1772 1103
1773 1103
1698 1104
1699 1104
1700 1104
1701 1104
1702 1104
1703 1104
1704 1104
1705 1104
1706 1104
1707 1104
1708 1104
1709 1104
1710 1104
1711 1104
1712 1104
1713 1104
1714 1104
1715 1104
1716 1104
1717 1104
1718 1104
1719 1104
1720 1104
1721 1104
1722 1104
1723 1104
1724 1104
1725 1104
1726 1104
1727 1104
1728 1104
1729 1104
1730 1104
1731 1104
1732 1104
1733 1104
1734 1104
1735 1104
1736 1104
1737 1104
1738 1104
1739 1104
1740 1104
1741 1104
1742 1104
1743 1104
1744 1104
1745 1104
1746 1104
1747 1104
1748 1104
1749 1104
1750 1104
1751 1104
1752 1104
1753 1104
1754 1104
1755 1104
1756 1104
1757 1104
1758 1104
1759 1104
1760 1104
1761 1104
1762 1104
1763 1104
1764 1104
1765 1104
1766 1104
1767 1104
1768 1104
1769 1104
1770 1104
1771 1104
1772 1104
1773 1104
1698 1105
1699 1105
1700 1105
1701 1105
1702 1105
1703 1105
1704 1105
1705 1105
1706 1105
1707 1105
1708 1105
1709 1105
1710 1105
1711 1105
1712 1105
1713 1105
1714 1105
1715 1105
1716 1105
1717 1105
1718 1105
1719 1105
1720 1105
1721 1105
1722 1105
1723 1105
1724 1105
1725 1105
1726 1105
1727 1105
1728 1105
1729 1105
1730 1105
1731 1105
1732 1105
1733 1105
1734 1105
1735 1105
1736 1105
1737 1105
1738 1105
1739 1105
1740 1105
1741 1105
1742 1105
1743 1105
1744 1105
1745 1105
1746 1105
1747 1105
1748 1105
1749 1105
1750 1105
1751 1105
1752 1105
1753 1105
1754 1105
1755 1105
1756 1105
1757 1105
1758 1105
1759 1105
1760 1105
1761 1105
1762 1105
1763 1105
1764 1105
1765 1105
1766 1105
1767 1105
1768 1105
1769 1105
1770 1105
1771 1105
1772 1105
1773 1105
1698 1106
1699 1106
1700 1106
1701 1106
1702 1106
1703 1106
1704 1106
1705 1106
1706 1106
1707 1106
1708 1106
1709 1106
1710 1106
1711 1106
1712 1106
1713 1106
1714 1106
1715 1106
1716 1106
1717 1106
1718 1106
1719 1106
1720 1106
1721 1106
1722 1106
1723 1106
1724 1106
1725 1106
1726 1106
1727 1106
1728 1106
1729 1106
1730 1106
1731 1106
1732 1106
1733 1106
1734 1106
1735 1106
1736 1106
1737 1106
1738 1106
1739 1106
1740 1106
1741 1106
1742 1106
1743 1106
1744 1106
1745 1106
1746 1106
1747 1106
1748 1106
1749 1106
1750 1106
1751 1106
1752 1106
1753 1106
1754 1106
1755 1106
1756 1106
1757 1106
1758 1106
1759 1106
1760 1106
1761 1106
1762 1106
1763 1106
1764 1106
1765 1106
1766 1106
1767 1106
1768 1106
1769 1106
1770 1106
1771 1106
1772 1106
1773 1106
1698 1107
1699 1107
1700 1107
1701 1107
1702 1107
1703 1107
1704 1107
1705 1107
1706 1107
1707 1107
1708 1107
1709 1107
1710 1107
1711 1107
1712 1107
1713 1107
1714 1107
1715 1107
1716 1107
1717 1107
1718 1107
1719 1107
1720 1107
1721 1107
1722 1107
1723 1107
1724 1107
1725 1107
1726 1107
1727 1107
1728 1107
1729 1107
1730 1107
1731 1107
1732 1107
1733 1107
1734 1107
1735 1107
1736 1107
1737 1107
1738 1107
1739 1107
1740 1107
1741 1107
1742 1107
1743 1107
1744 1107
1745 1107
1746 1107
1747 1107
1748 1107
1749 1107
1750 1107
1751 1107
1752 1107
1753 1107
1754 1107
1755 1107
1756 1107
1757 1107
1758 1107
1759 1107
1760 1107
1761 1107
1762 1107
1763 1107
1764 1107
1765 1107
1766 1107
1767 1107
1768 1107
1769 1107
1770 1107
1771 1107
1772 1107
1773 1107
1698 1108
1699 1108
1700 1108
1701 1108
1702 1108
1703 1108
1704 1108
1705 1108
1706 1108
1707 1108
1708 1108
1709 1108
1710 1108
1711 1108
1712 1108
1713 1108
1714 1108
1715 1108
1716 1108
1717 1108
1718 1108
1719 1108
1720 1108
1721 1108
1722 1108
1723 1108
1724 1108
1725 1108
1726 1108
1727 1108
1728 1108
1729 1108
1730 1108
1731 1108
1732 1108
1733 1108
1734 1108
1735 1108
1736 1108
1737 1108
1738 1108
1739 1108
1740 1108
1741 1108
1742 1108
1743 1108
1744 1108
1745 1108
1746 1108
1747 1108
1748 1108
1749 1108
1750 1108
1751 1108
1752 1108
1753 1108
1754 1108
1755 1108
1756 1108
1757 1108
1758 1108
1759 1108
1760 1108
1761 1108
1762 1108
1763 1108
1764 1108
1765 1108
1766 1108
1767 1108
1768 1108
1769 1108
1770 1108
1771 1108
1772 1108
1773 1108
1698 1109
1699 1109
1700 1109
1701 1109
1702 1109
1703 1109
1704 1109
1705 1109
1706 1109
1707 1109
1708 1109
1709 1109
1710 1109
1711 1109
1712 1109
1713 1109
1714 1109
1715 1109
1716 1109
1717 1109
1718 1109
1719 1109
1720 1109
1721 1109
1722 1109
1723 1109
1724 1109
1725 1109
1726 1109
1727 1109
1728 1109
1729 1109
1730 1109
1731 1109
1732 1109
1733 1109
1734 1109
1735 1109
1736 1109
1737 1109
1738 1109
1739 1109
1740 1109
1741 1109
1742 1109
1743 1109
1744 1109
1745 1109
1746 1109
1747 1109
1748 1109
1749 1109
1750 1109
1751 1109
1752 1109
1753 1109
1754 1109
1755 1109
1756 1109
1757 1109
1758 1109
1759 1109
1760 1109
1761 1109
1762 1109
1763 1109
1764 1109
1765 1109
1766 1109
1767 1109
1768 1109
1769 1109
1770 1109
1771 1109
1772 1109
1773 1109
1698 1110
1699 1110
1700 1110
1701 1110
1702 1110
1703 1110
1704 1110
1705 1110
1706 1110
1707 1110
1708 1110
1709 1110
1710 1110
1711 1110
1712 1110
1713 1110
1714 1110
1715 1110
1716 1110
1717 1110
1718 1110
1719 1110
1720 1110
1721 1110
1722 1110
1723 1110
1724 1110
1725 1110
1726 1110
1727 1110
1728 1110
1729 1110
1730 1110
1731 1110
1732 1110
1733 1110
1734 1110
1735 1110
1736 1110
1737 1110
1738 1110
1739 1110
1740 1110
1741 1110
1742 1110
1743 1110
1744 1110
1745 1110
1746 1110
1747 1110
1748 1110
1749 1110
1750 1110
1751 1110
1752 1110
1753 1110
1754 1110
1755 1110
1756 1110
1757 1110
1758 1110
1759 1110
1760 1110
1761 1110
1762 1110
1763 1110
1764 1110
1765 1110
1766 1110
1767 1110
1768 1110
1769 1110
1770 1110
1771 1110
1772 1110
1773 1110
1698 1111
1699 1111
1700 1111
1701 1111
1702 1111
1703 1111
1704 1111
1705 1111
1706 1111
1707 1111
1708 1111
1709 1111
1710 1111
1711 1111
1712 1111
1713 1111
1714 1111
1715 1111
1716 1111
1717 1111
1718 1111
1719 1111
1720 1111
1721 1111
1722 1111
1723 1111
1724 1111
1725 1111
1726 1111
1727 1111
1728 1111
1729 1111
1730 1111
1731 1111
1732 1111
1733 1111
1734 1111
1735 1111
1736 1111
1737 1111
1738 1111
1739 1111
1740 1111
1741 1111
1742 1111
1743 1111
1744 1111
1745 1111
1746 1111
1747 1111
1748 1111
1749 1111
1750 1111
1751 1111
1752 1111
1753 1111
1754 1111
1755 1111
1756 1111
1757 1111
1758 1111
1759 1111
1760 1111
1761 1111
1762 1111
1763 1111
1764 1111
1765 1111
1766 1111
1767 1111
1768 1111
1769 1111
1770 1111
1771 1111
1772 1111
1773 1111
1698 1112
1699 1112
1700 1112
1701 1112
1702 1112
1703 1112
1704 1112
1705 1112
1706 1112
1707 1112
1708 1112
1709 1112
1710 1112
1711 1112
1712 1112
1713 1112
1714 1112
1715 1112
1716 1112
1717 1112
1718 1112
1719 1112
1720 1112
1721 1112
1722 1112
1723 1112
1724 1112
1725 1112
1726 1112
1727 1112
1728 1112
1729 1112
1730 1112
1731 1112
1732 1112
1733 1112
1734 1112
1735 1112
1736 1112
1737 1112
1738 1112
1739 1112
1740 1112
1741 1112
1742 1112
1743 1112
1744 1112
1745 1112
1746 1112
1747 1112
1748 1112
1749 1112
1750 1112
1751 1112
1752 1112
1753 1112
1754 1112
1755 1112
1756 1112
1757 1112
1758 1112
1759 1112
1760 1112
1761 1112
1762 1112
1763 1112
1764 1112
1765 1112
1766 1112
1767 1112
1768 1112
1769 1112
1770 1112
1771 1112
1772 1112
1773 1112
1698 1113
1699 1113
1700 1113
1701 1113
1702 1113
1703 1113
1704 1113
1705 1113
1706 1113
1707 1113
1708 1113
1709 1113
1710 1113
1711 1113
1712 1113
1713 1113
1714 1113
1715 1113
1716 1113
1717 1113
1718 1113
1719 1113
1720 1113
1721 1113
1722 1113
1723 1113
1724 1113
1725 1113
1726 1113
1727 1113
1728 1113
1729 1113
1730 1113
1731 1113
1732 1113
1733 1113
1734 1113
1735 1113
1736 1113
1737 1113
1738 1113
1739 1113
1740 1113
1741 1113
1742 1113
1743 1113
1744 1113
1745 1113
1746 1113
1747 1113
1748 1113
1749 1113
1750 1113
1751 1113
1752 1113
1753 1113
1754 1113
1755 1113
1756 1113
1757 1113
1758 1113
1759 1113
1760 1113
1761 1113
1762 1113
1763 1113
1764 1113
1765 1113
1766 1113
1767 1113
1768 1113
1769 1113
1770 1113
1771 1113
1772 1113
1773 1113
1698 1114
1699 1114
1700 1114
1701 1114
1702 1114
1703 1114
1704 1114
1705 1114
1706 1114
1707 1114
1708 1114
1709 1114
1710 1114
1711 1114
1712 1114
1713 1114
1714 1114
1715 1114
1716 1114
1717 1114
1718 1114
1719 1114
1720 1114
1721 1114
1722 1114
1723 1114
1724 1114
1725 1114
1726 1114
1727 1114
1728 1114
1729 1114
1730 1114
1731 1114
1732 1114
1733 1114
1734 1114
1735 1114
1736 1114
1737 1114
1738 1114
1739 1114
1740 1114
1741 1114
1742 1114
1743 1114
1744 1114
1745 1114
1746 1114
1747 1114
1748 1114
1749 1114
1750 1114
1751 1114
1752 1114
1753 1114
1754 1114
1755 1114
1756 1114
1757 1114
1758 1114
1759 1114
1760 1114
1761 1114
1762 1114
1763 1114
1764 1114
1765 1114
1766 1114
1767 1114
1768 1114
1769 1114
1770 1114
1771 1114
1772 1114
1773 1114
1698 1115
1699 1115
1700 1115
1701 1115
1702 1115
1703 1115
1704 1115
1705 1115
1706 1115
1707 1115
1708 1115
1709 1115
1710 1115
1711 1115
1712 1115
1713 1115
1714 1115
1715 1115
1716 1115
1717 1115
1718 1115
1719 1115
1720 1115
1721 1115
1722 1115
1723 1115
1724 1115
1725 1115
1726 1115
1727 1115
1728 1115
1729 1115
1730 1115
1731 1115
1732 1115
1733 1115
1734 1115
1735 1115
1736 1115
1737 1115
1738 1115
1739 1115
1740 1115
1741 1115
1742 1115
1743 1115
1744 1115
1745 1115
1746 1115
1747 1115
1748 1115
1749 1115
1750 1115
1751 1115
1752 1115
1753 1115
1754 1115
1755 1115
1756 1115
1757 1115
1758 1115
1759 1115
1760 1115
1761 1115
1762 1115
1763 1115
1764 1115
1765 1115
1766 1115
1767 1115
1768 1115
1769 1115
1770 1115
1771 1115
1772 1115
1773 1115
1698 1116
1699 1116
1700 1116
1701 1116
1702 1116
1703 1116
1704 1116
1705 1116
1706 1116
1707 1116
1708 1116
1709 1116
1710 1116
1711 1116
1712 1116
1713 1116
1714 1116
1715 1116
1716 1116
1717 1116
1718 1116
1719 1116
1720 1116
1721 1116
1722 1116
1723 1116
1724 1116
1725 1116
1726 1116
1727 1116
1728 1116
1729 1116
1730 1116
1731 1116
1732 1116
1733 1116
1734 1116
1735 1116
1736 1116
1737 1116
1738 1116
1739 1116
1740 1116
1741 1116
1742 1116
1743 1116
1744 1116
1745 1116
1746 1116
1747 1116
1748 1116
1749 1116
1750 1116
1751 1116
1752 1116
1753 1116
1754 1116
1755 1116
1756 1116
1757 1116
1758 1116
1759 1116
1760 1116
1761 1116
1762 1116
1763 1116
1764 1116
1765 1116
1766 1116
1767 1116
1768 1116
1769 1116
1770 1116
1771 1116
1772 1116
1773 1116
1698 1117
1699 1117
1700 1117
1701 1117
1702 1117
1703 1117
1704 1117
1705 1117
1706 1117
1707 1117
1708 1117
1709 1117
1710 1117
1711 1117
1712 1117
1713 1117
1714 1117
1715 1117
1716 1117
1717 1117
1718 1117
1719 1117
1720 1117
1721 1117
1722 1117
1723 1117
1724 1117
1725 1117
1726 1117
1727 1117
1728 1117
1729 1117
1730 1117
1731 1117
1732 1117
1733 1117
1734 1117
1735 1117
1736 1117
1737 1117
1738 1117
1739 1117
1740 1117
1741 1117
1742 1117
1743 1117
1744 1117
1745 1117
1746 1117
1747 1117
1748 1117
1749 1117
1750 1117
1751 1117
1752 1117
1753 1117
1754 1117
1755 1117
1756 1117
1757 1117
1758 1117
1759 1117
1760 1117
1761 1117
1762 1117
1763 1117
1764 1117
1765 1117
1766 1117
1767 1117
1768 1117
1769 1117
1770 1117
1771 1117
1772 1117
1773 1117
1698 1118
1699 1118
1700 1118
1701 1118
1702 1118
1703 1118
1704 1118
1705 1118
1706 1118
1707 1118
1708 1118
1709 1118
1710 1118
1711 1118
1712 1118
1713 1118
1714 1118
1715 1118
1716 1118
1717 1118
1718 1118
1719 1118
1720 1118
1721 1118
1722 1118
1723 1118
1724 1118
1725 1118
1726 1118
1727 1118
1728 1118
1729 1118
1730 1118
1731 1118
1732 1118
1733 1118
1734 1118
1735 1118
1736 1118
1737 1118
1738 1118
1739 1118
1740 1118
1741 1118
1742 1118
1743 1118
1744 1118
1745 1118
1746 1118
1747 1118
1748 1118
1749 1118
1750 1118
1751 1118
1752 1118
1753 1118
1754 1118
1755 1118
1756 1118
1757 1118
1758 1118
1759 1118
1760 1118
1761 1118
1762 1118
1763 1118
1764 1118
1765 1118
1766 1118
1767 1118
1768 1118
1769 1118
1770 1118
1771 1118
1772 1118
1773 1118
1698 1119
1699 1119
1700 1119
1701 1119
1702 1119
1703 1119
1704 1119
1705 1119
1706 1119
1707 1119
1708 1119
1709 1119
1710 1119
1711 1119
1712 1119
1713 1119
1714 1119
1715 1119
1716 1119
1717 1119
1718 1119
1719 1119
1720 1119
1721 1119
1722 1119
1723 1119
1724 1119
1725 1119
1726 1119
1727 1119
1728 1119
1729 1119
1730 1119
1731 1119
1732 1119
1733 1119
1734 1119
1735 1119
1736 1119
1737 1119
1738 1119
1739 1119
1740 1119
1741 1119
1742 1119
1743 1119
1744 1119
1745 1119
1746 1119
1747 1119
1748 1119
1749 1119
1750 1119
1751 1119
1752 1119
1753 1119
1754 1119
1755 1119
1756 1119
1757 1119
1758 1119
1759 1119
1760 1119
1761 1119
1762 1119
1763 1119
1764 1119
1765 1119
1766 1119
1767 1119
1768 1119
1769 1119
1770 1119
1771 1119
1772 1119
1773 1119
1698 1120
1699 1120
1700 1120
1701 1120
1702 1120
1703 1120
1704 1120
1705 1120
1706 1120
1707 1120
1708 1120
1709 1120
1710 1120
1711 1120
1712 1120
1713 1120
1714 1120
1715 1120
1716 1120
1717 1120
1718 1120
1719 1120
1720 1120
1721 1120
1722 1120
1723 1120
1724 1120
1725 1120
1726 1120
1727 1120
1728 1120
1729 1120
1730 1120
1731 1120
1732 1120
1733 1120
1734 1120
1735 1120
1736 1120
1737 1120
1738 1120
1739 1120
1740 1120
1741 1120
1742 1120
1743 1120
1744 1120
1745 1120
1746 1120
1747 1120
1748 1120
1749 1120
1750 1120
1751 1120
1752 1120
1753 1120
1754 1120
1755 1120
1756 1120
1757 1120
1758 1120
1759 1120
1760 1120
1761 1120
1762 1120
1763 1120
1764 1120
1765 1120
1766 1120
1767 1120
1768 1120
1769 1120
1770 1120
1771 1120
1772 1120
1773 1120
1698 1121
1699 1121
1700 1121
1701 1121
1702 1121
1703 1121
1704 1121
1705 1121
1706 1121
1707 1121
1708 1121
1709 1121
1710 1121
1711 1121
1712 1121
1713 1121
1714 1121
1715 1121
1716 1121
1717 1121
1718 1121
1719 1121
1720 1121
1721 1121
1722 1121
1723 1121
1724 1121
1725 1121
1726 1121
1727 1121
1728 1121
1729 1121
1730 1121
1731 1121
1732 1121
1733 1121
1734 1121
1735 1121
1736 1121
1737 1121
1738 1121
1739 1121
1740 1121
1741 1121
1742 1121
1743 1121
1744 1121
1745 1121
1746 1121
1747 1121
1748 1121
1749 1121
1750 1121
1751 1121
1752 1121
1753 1121
1754 1121
1755 1121
1756 1121
1757 1121
1758 1121
1759 1121
1760 1121
1761 1121
1762 1121
1763 1121
1764 1121
1765 1121
1766 1121
1767 1121
1768 1121
1769 1121
1770 1121
1771 1121
1772 1121
1773 1121
1698 1122
1699 1122
1700 1122
1701 1122
1702 1122
1703 1122
1704 1122
1705 1122
1706 1122
1707 1122
1708 1122
1709 1122
1710 1122
1711 1122
1712 1122
1713 1122
1714 1122
1715 1122
1716 1122
1717 1122
1718 1122
1719 1122
1720 1122
1721 1122
1722 1122
1723 1122
1724 1122
1725 1122
1726 1122
1727 1122
1728 1122
1729 1122
1730 1122
1731 1122
1732 1122
1733 1122
1734 1122
1735 1122
1736 1122
1737 1122
1738 1122
1739 1122
1740 1122
1741 1122
1742 1122
1743 1122
1744 1122
1745 1122
1746 1122
1747 1122
1748 1122
1749 1122
1750 1122
1751 1122
1752 1122
1753 1122
1754 1122
1755 1122
1756 1122
1757 1122
1758 1122
1759 1122
1760 1122
1761 1122
1762 1122
1763 1122
1764 1122
1765 1122
1766 1122
1767 1122
1768 1122
1769 1122
1770 1122
1771 1122
1772 1122
1773 1122
1698 1123
1699 1123
1700 1123
1701 1123
1702 1123
1703 1123
1704 1123
1705 1123
1706 1123
1707 1123
1708 1123
1709 1123
1710 1123
1711 1123
1712 1123
1713 1123
1714 1123
1715 1123
1716 1123
1717 1123
1718 1123
1719 1123
1720 1123
1721 1123
1722 1123
1723 1123
1724 1123
1725 1123
1726 1123
1727 1123
1728 1123
1729 1123
1730 1123
1731 1123
1732 1123
1733 1123
1734 1123
1735 1123
1736 1123
1737 1123
1738 1123
1739 1123
1740 1123
1741 1123
1742 1123
1743 1123
1744 1123
1745 1123
1746 1123
1747 1123
1748 1123
1749 1123
1750 1123
1751 1123
1752 1123
1753 1123
1754 1123
1755 1123
1756 1123
1757 1123
1758 1123
1759 1123
1760 1123
1761 1123
1762 1123
1763 1123
1764 1123
1765 1123
1766 1123
1767 1123
1768 1123
1769 1123
1770 1123
1771 1123
1772 1123
1773 1123
1698 1124
1699 1124
1700 1124
1701 1124
1702 1124
1703 1124
1704 1124
1705 1124
1706 1124
1707 1124
1708 1124
1709 1124
1710 1124
1711 1124
1712 1124
1713 1124
1714 1124
1715 1124
1716 1124
1717 1124
1718 1124
1719 1124
1720 1124
1721 1124
1722 1124
1723 1124
1724 1124
1725 1124
1726 1124
1727 1124
1728 1124
1729 1124
1730 1124
1731 1124
1732 1124
1733 1124
1734 1124
1735 1124
1736 1124
1737 1124
1738 1124
1739 1124
1740 1124
1741 1124
1742 1124
1743 1124
1744 1124
1745 1124
1746 1124
1747 1124
1748 1124
1749 1124
1750 1124
1751 1124
1752 1124
1753 1124
1754 1124
1755 1124
1756 1124
1757 1124
1758 1124
1759 1124
1760 1124
1761 1124
1762 1124
1763 1124
1764 1124
1765 1124
1766 1124
1767 1124
1768 1124
1769 1124
1770 1124
1771 1124
1772 1124
1773 1124
1698 1125
1699 1125
1700 1125
1701 1125
1702 1125
1703 1125
1704 1125
1705 1125
1706 1125
1707 1125
1708 1125
1709 1125
1710 1125
1711 1125
1712 1125
1713 1125
1714 1125
1715 1125
1716 1125
1717 1125
1718 1125
1719 1125
1720 1125
1721 1125
1722 1125
1723 1125
1724 1125
1725 1125
1726 1125
1727 1125
1728 1125
1729 1125
1730 1125
1731 1125
1732 1125
1733 1125
1734 1125
1735 1125
1736 1125
1737 1125
1738 1125
1739 1125
1740 1125
1741 1125
1742 1125
1743 1125
1744 1125
1745 1125
1746 1125
1747 1125
1748 1125
1749 1125
1750 1125
1751 1125
1752 1125
1753 1125
1754 1125
1755 1125
1756 1125
1757 1125
1758 1125
1759 1125
1760 1125
1761 1125
1762 1125
1763 1125
1764 1125
1765 1125
1766 1125
1767 1125
1768 1125
1769 1125
1770 1125
1771 1125
1772 1125
1773 1125
1698 1126
1699 1126
1700 1126
1701 1126
1702 1126
1703 1126
1704 1126
1705 1126
1706 1126
1707 1126
1708 1126
1709 1126
1710 1126
1711 1126
1712 1126
1713 1126
1714 1126
1715 1126
1716 1126
1717 1126
1718 1126
1719 1126
1720 1126
1721 1126
1722 1126
1723 1126
1724 1126
1725 1126
1726 1126
1727 1126
1728 1126
1729 1126
1730 1126
1731 1126
1732 1126
1733 1126
1734 1126
1735 1126
1736 1126
1737 1126
1738 1126
1739 1126
1740 1126
1741 1126
1742 1126
1743 1126
1744 1126
1745 1126
1746 1126
1747 1126
1748 1126
1749 1126
1750 1126
1751 1126
1752 1126
1753 1126
1754 1126
1755 1126
1756 1126
1757 1126
1758 1126
1759 1126
1760 1126
1761 1126
1762 1126
1763 1126
1764 1126
1765 1126
1766 1126
1767 1126
1768 1126
1769 1126
1770 1126
1771 1126
1772 1126
1773 1126
1698 1127
1699 1127
1700 1127
1701 1127
1702 1127
1703 1127
1704 1127
1705 1127
1706 1127
1707 1127
1708 1127
1709 1127
1710 1127
1711 1127
1712 1127
1713 1127
1714 1127
1715 1127
1716 1127
1717 1127
1718 1127
1719 1127
1720 1127
1721 1127
1722 1127
1723 1127
1724 1127
1725 1127
1726 1127
1727 1127
1728 1127
1729 1127
1730 1127
1731 1127
1732 1127
1733 1127
1734 1127
1735 1127
1736 1127
1737 1127
1738 1127
1739 1127
1740 1127
1741 1127
1742 1127
1743 1127
1744 1127
1745 1127
1746 1127
1747 1127
1748 1127
1749 1127
1750 1127
1751 1127
1752 1127
1753 1127
1754 1127
1755 1127
1756 1127
1757 1127
1758 1127
1759 1127
1760 1127
1761 1127
1762 1127
1763 1127
1764 1127
1765 1127
1766 1127
1767 1127
1768 1127
1769 1127
1770 1127
1771 1127
1772 1127
1773 1127
1698 1128
1699 1128
1700 1128
1701 1128
1702 1128
1703 1128
1704 1128
1705 1128
1706 1128
1707 1128
1708 1128
1709 1128
1710 1128
1711 1128
1712 1128
1713 1128
1714 1128
1715 1128
1716 1128
1717 1128
1718 1128
1719 1128
1720 1128
1721 1128
1722 1128
1723 1128
1724 1128
1725 1128
1726 1128
1727 1128
1728 1128
1729 1128
1730 1128
1731 1128
1732 1128
1733 1128
1734 1128
1735 1128
1736 1128
1737 1128
1738 1128
1739 1128
1740 1128
1741 1128
1742 1128
1743 1128
1744 1128
1745 1128
1746 1128
1747 1128
1748 1128
1749 1128
1750 1128
1751 1128
1752 1128
1753 1128
1754 1128
1755 1128
1756 1128
1757 1128
1758 1128
1759 1128
1760 1128
1761 1128
1762 1128
1763 1128
1764 1128
1765 1128
1766 1128
1767 1128
1768 1128
1769 1128
1770 1128
1771 1128
1772 1128
1773 1128
1698 1129
1699 1129
1700 1129
1701 1129
1702 1129
1703 1129
1704 1129
1705 1129
1706 1129
1707 1129
1708 1129
1709 1129
1710 1129
1711 1129
1712 1129
1713 1129
1714 1129
1715 1129
1716 1129
1717 1129
1718 1129
1719 1129
1720 1129
1721 1129
1722 1129
1723 1129
1724 1129
1725 1129
1726 1129
1727 1129
1728 1129
1729 1129
1730 1129
1731 1129
1732 1129
1733 1129
1734 1129
1735 1129
1736 1129
1737 1129
1738 1129
1739 1129
1740 1129
1741 1129
1742 1129
1743 1129
1744 1129
1745 1129
1746 1129
1747 1129
1748 1129
1749 1129
1750 1129
1751 1129
1752 1129
1753 1129
1754 1129
1755 1129
1756 1129
1757 1129
1758 1129
1759 1129
1760 1129
1761 1129
1762 1129
1763 1129
1764 1129
1765 1129
1766 1129
1767 1129
1768 1129
1769 1129
1770 1129
1771 1129
1772 1129
1773 1129
1698 1130
1699 1130
1700 1130
1701 1130
1702 1130
1703 1130
1704 1130
1705 1130
1706 1130
1707 1130
1708 1130
1709 1130
1710 1130
1711 1130
1712 1130
1713 1130
1714 1130
1715 1130
1716 1130
1717 1130
1718 1130
1719 1130
1720 1130
1721 1130
1722 1130
1723 1130
1724 1130
1725 1130
1726 1130
1727 1130
1728 1130
1729 1130
1730 1130
1731 1130
1732 1130
1733 1130
1734 1130
1735 1130
1736 1130
1737 1130
1738 1130
1739 1130
1740 1130
1741 1130
1742 1130
1743 1130
1744 1130
1745 1130
1746 1130
1747 1130
1748 1130
1749 1130
1750 1130
1751 1130
1752 1130
1753 1130
1754 1130
1755 1130
1756 1130
1757 1130
1758 1130
1759 1130
1760 1130
1761 1130
1762 1130
1763 1130
1764 1130
1765 1130
1766 1130
1767 1130
1768 1130
1769 1130
1770 1130
1771 1130
1772 1130
1773 1130
1698 1131
1699 1131
1700 1131
1701 1131
1702 1131
1703 1131
1704 1131
1705 1131
1706 1131
1707 1131
1708 1131
1709 1131
1710 1131
1711 1131
1712 1131
1713 1131
1714 1131
1715 1131
1716 1131
1717 1131
1718 1131
1719 1131
1720 1131
1721 1131
1722 1131
1723 1131
1724 1131
1725 1131
1726 1131
1727 1131
1728 1131
1729 1131
1730 1131
1731 1131
1732 1131
1733 1131
1734 1131
1735 1131
1736 1131
1737 1131
1738 1131
1739 1131
1740 1131
1741 1131
1742 1131
1743 1131
1744 1131
1745 1131
1746 1131
1747 1131
1748 1131
1749 1131
1750 1131
1751 1131
1752 1131
1753 1131
1754 1131
1755 1131
1756 1131
1757 1131
1758 1131
1759 1131
1760 1131
1761 1131
1762 1131
1763 1131
1764 1131
1765 1131
1766 1131
1767 1131
1768 1131
1769 1131
1770 1131
1771 1131
1772 1131
1773 1131
1698 1132
1699 1132
1700 1132
1701 1132
1702 1132
1703 1132
1704 1132
1705 1132
1706 1132
1707 1132
1708 1132
1709 1132
1710 1132
1711 1132
1712 1132
1713 1132
1714 1132
1715 1132
1716 1132
1717 1132
1718 1132
1719 1132
1720 1132
1721 1132
1722 1132
1723 1132
1724 1132
1725 1132
1726 1132
1727 1132
1728 1132
1729 1132
1730 1132
1731 1132
1732 1132
1733 1132
1734 1132
1735 1132
1736 1132
1737 1132
1738 1132
1739 1132
1740 1132
1741 1132
1742 1132
1743 1132
1744 1132
1745 1132
1746 1132
1747 1132
1748 1132
1749 1132
1750 1132
1751 1132
1752 1132
1753 1132
1754 1132
1755 1132
1756 1132
1757 1132
1758 1132
1759 1132
1760 1132
1761 1132
1762 1132
1763 1132
1764 1132
1765 1132
1766 1132
1767 1132
1768 1132
1769 1132
1770 1132
1771 1132
1772 1132
1773 1132
1698 1133
1699 1133
1700 1133
1701 1133
1702 1133
1703 1133
1704 1133
1705 1133
1706 1133
1707 1133
1708 1133
1709 1133
1710 1133
1711 1133
1712 1133
1713 1133
1714 1133
1715 1133
1716 1133
1717 1133
1718 1133
1719 1133
1720 1133
1721 1133
1722 1133
1723 1133
1724 1133
1725 1133
1726 1133
1727 1133
1728 1133
1729 1133
1730 1133
1731 1133
1732 1133
1733 1133
1734 1133
1735 1133
1736 1133
1737 1133
1738 1133
1739 1133
1740 1133
1741 1133
1742 1133
1743 1133
1744 1133
1745 1133
1746 1133
1747 1133
1748 1133
1749 1133
1750 1133
1751 1133
1752 1133
1753 1133
1754 1133
1755 1133
1756 1133
1757 1133
1758 1133
1759 1133
1760 1133
1761 1133
1762 1133
1763 1133
1764 1133
1765 1133
1766 1133
1767 1133
1768 1133
1769 1133
1770 1133
1771 1133
1772 1133
1773 1133
1698 1134
1699 1134
1700 1134
1701 1134
1702 1134
1703 1134
1704 1134
1705 1134
1706 1134
1707 1134
1708 1134
1709 1134
1710 1134
1711 1134
1712 1134
1713 1134
1714 1134
1715 1134
1716 1134
1717 1134
1718 1134
1719 1134
1720 1134
1721 1134
1722 1134
1723 1134
1724 1134
1725 1134
1726 1134
1727 1134
1728 1134
1729 1134
1730 1134
1731 1134
1732 1134
1733 1134
1734 1134
1735 1134
1736 1134
1737 1134
1738 1134
1739 1134
1740 1134
1741 1134
1742 1134
1743 1134
1744 1134
1745 1134
1746 1134
1747 1134
1748 1134
1749 1134
1750 1134
1751 1134
1752 1134
1753 1134
1754 1134
1755 1134
1756 1134
1757 1134
1758 1134
1759 1134
1760 1134
1761 1134
1762 1134
1763 1134
1764 1134
1765 1134
1766 1134
1767 1134
1768 1134
1769 1134
1770 1134
1771 1134
1772 1134
1773 1134
1698 1135
1699 1135
1700 1135
1701 1135
1702 1135
1703 1135
1704 1135
1705 1135
1706 1135
1707 1135
1708 1135
1709 1135
1710 1135
1711 1135
1712 1135
1713 1135
1714 1135
1715 1135
1716 1135
1717 1135
1718 1135
1719 1135
1720 1135
1721 1135
1722 1135
1723 1135
1724 1135
1725 1135
1726 1135
1727 1135
1728 1135
1729 1135
1730 1135
1731 1135
1732 1135
1733 1135
1734 1135
1735 1135
1736 1135
1737 1135
1738 1135
1739 1135
1740 1135
1741 1135
1742 1135
1743 1135
1744 1135
1745 1135
1746 1135
1747 1135
1748 1135
1749 1135
1750 1135
1751 1135
1752 1135
1753 1135
1754 1135
1755 1135
1756 1135
1757 1135
1758 1135
1759 1135
1760 1135
1761 1135
1762 1135
1763 1135
1764 1135
1765 1135
1766 1135
1767 1135
1768 1135
1769 1135
1770 1135
1771 1135
1772 1135
1773 1135
1698 1136
1699 1136
1700 1136
1701 1136
1702 1136
1703 1136
1704 1136
1705 1136
1706 1136
1707 1136
1708 1136
1709 1136
1710 1136
1711 1136
1712 1136
1713 1136
1714 1136
1715 1136
1716 1136
1717 1136
1718 1136
1719 1136
1720 1136
1721 1136
1722 1136
1723 1136
1724 1136
1725 1136
1726 1136
1727 1136
1728 1136
1729 1136
1730 1136
1731 1136
1732 1136
1733 1136
1734 1136
1735 1136
1736 1136
1737 1136
1738 1136
1739 1136
1740 1136
1741 1136
1742 1136
1743 1136
1744 1136
1745 1136
1746 1136
1747 1136
1748 1136
1749 1136
1750 1136
1751 1136
1752 1136
1753 1136
1754 1136
1755 1136
1756 1136
1757 1136
1758 1136
1759 1136
1760 1136
1761 1136
1762 1136
1763 1136
1764 1136
1765 1136
1766 1136
1767 1136
1768 1136
1769 1136
1770 1136
1771 1136
1772 1136
1773 1136
1698 1137
1699 1137
1700 1137
1701 1137
1702 1137
1703 1137
1704 1137
1705 1137
1706 1137
1707 1137
1708 1137
1709 1137
1710 1137
1711 1137
1712 1137
1713 1137
1714 1137
1715 1137
1716 1137
1717 1137
1718 1137
1719 1137
1720 1137
1721 1137
1722 1137
1723 1137
1724 1137
1725 1137
1726 1137
1727 1137
1728 1137
1729 1137
1730 1137
1731 1137
1732 1137
1733 1137
1734 1137
1735 1137
1736 1137
1737 1137
1738 1137
1739 1137
1740 1137
1741 1137
1742 1137
1743 1137
1744 1137
1745 1137
1746 1137
1747 1137
1748 1137
1749 1137
1750 1137
1751 1137
1752 1137
1753 1137
1754 1137
1755 1137
1756 1137
1757 1137
1758 1137
1759 1137
1760 1137
1761 1137
1762 1137
1763 1137
1764 1137
1765 1137
1766 1137
1767 1137
1768 1137
1769 1137
1770 1137
1771 1137
1772 1137
1773 1137
1698 1138
1699 1138
1700 1138
1701 1138
1702 1138
1703 1138
1704 1138
1705 1138
1706 1138
1707 1138
1708 1138
1709 1138
1710 1138
1711 1138
1712 1138
1713 1138
1714 1138
1715 1138
1716 1138
1717 1138
1718 1138
1719 1138
1720 1138
1721 1138
1722 1138
1723 1138
1724 1138
1725 1138
1726 1138
1727 1138
1728 1138
1729 1138
1730 1138
1731 1138
1732 1138
1733 1138
1734 1138
1735 1138
1736 1138
1737 1138
1738 1138
1739 1138
1740 1138
1741 1138
1742 1138
1743 1138
1744 1138
1745 1138
1746 1138
1747 1138
1748 1138
1749 1138
1750 1138
1751 1138
1752 1138
1753 1138
1754 1138
1755 1138
1756 1138
1757 1138
1758 1138
1759 1138
1760 1138
1761 1138
1762 1138
1763 1138
1764 1138
1765 1138
1766 1138
1767 1138
1768 1138
1769 1138
1770 1138
1771 1138
1772 1138
1773 1138
1698 1139
1699 1139
1700 1139
1701 1139
1702 1139
1703 1139
1704 1139
1705 1139
1706 1139
1707 1139
1708 1139
1709 1139
1710 1139
1711 1139
1712 1139
1713 1139
1714 1139
1715 1139
1716 1139
1717 1139
1718 1139
1719 1139
1720 1139
1721 1139
1722 1139
1723 1139
1724 1139
1725 1139
1726 1139
1727 1139
1728 1139
1729 1139
1730 1139
1731 1139
1732 1139
1733 1139
1734 1139
1735 1139
1736 1139
1737 1139
1738 1139
1739 1139
1740 1139
1741 1139
1742 1139
1743 1139
1744 1139
1745 1139
1746 1139
1747 1139
1748 1139
1749 1139
1750 1139
1751 1139
1752 1139
1753 1139
1754 1139
1755 1139
1756 1139
1757 1139
1758 1139
1759 1139
1760 1139
1761 1139
1762 1139
1763 1139
1764 1139
1765 1139
1766 1139
1767 1139
1768 1139
1769 1139
1770 1139
1771 1139
1772 1139
1773 1139
1698 1140
1699 1140
1700 1140
1701 1140
1702 1140
1703 1140
1704 1140
1705 1140
1706 1140
1707 1140
1708 1140
1709 1140
1710 1140
1711 1140
1712 1140
1713 1140
1714 1140
1715 1140
1716 1140
1717 1140
1718 1140
1719 1140
1720 1140
1721 1140
1722 1140
1723 1140
1724 1140
1725 1140
1726 1140
1727 1140
1728 1140
1729 1140
1730 1140
1731 1140
1732 1140
1733 1140
1734 1140
1735 1140
1736 1140
1737 1140
1738 1140
1739 1140
1740 1140
1741 1140
1742 1140
1743 1140
1744 1140
1745 1140
1746 1140
1747 1140
1748 1140
1749 1140
1750 1140
1751 1140
1752 1140
1753 1140
1754 1140
1755 1140
1756 1140
1757 1140
1758 1140
1759 1140
1760 1140
1761 1140
1762 1140
1763 1140
1764 1140
1765 1140
1766 1140
1767 1140
1768 1140
1769 1140
1770 1140
1771 1140
1772 1140
1773 1140
1698 1141
1699 1141
1700 1141
1701 1141
1702 1141
1703 1141
1704 1141
1705 1141
1706 1141
1707 1141
1708 1141
1709 1141
1710 1141
1711 1141
1712 1141
1713 1141
1714 1141
1715 1141
1716 1141
1717 1141
1718 1141
1719 1141
1720 1141
1721 1141
1722 1141
1723 1141
1724 1141
1725 1141
1726 1141
1727 1141
1728 1141
1729 1141
1730 1141
1731 1141
1732 1141
1733 1141
1734 1141
1735 1141
1736 1141
1737 1141
1738 1141
1739 1141
1740 1141
1741 1141
1742 1141
1743 1141
1744 1141
1745 1141
1746 1141
1747 1141
1748 1141
1749 1141
1750 1141
1751 1141
1752 1141
1753 1141
1754 1141
1755 1141
1756 1141
1757 1141
1758 1141
1759 1141
1760 1141
1761 1141
1762 1141
1763 1141
1764 1141
1765 1141
1766 1141
1767 1141
1768 1141
1769 1141
1770 1141
1771 1141
1772 1141
1773 1141
1698 1142
1699 1142
1700 1142
1701 1142
1702 1142
1703 1142
1704 1142
1705 1142
1706 1142
1707 1142
1708 1142
1709 1142
1710 1142
1711 1142
1712 1142
1713 1142
1714 1142
1715 1142
1716 1142
1717 1142
1718 1142
1719 1142
1720 1142
1721 1142
1722 1142
1723 1142
1724 1142
1725 1142
1726 1142
1727 1142
1728 1142
1729 1142
1730 1142
1731 1142
1732 1142
1733 1142
1734 1142
1735 1142
1736 1142
1737 1142
1738 1142
1739 1142
1740 1142
1741 1142
1742 1142
1743 1142
1744 1142
1745 1142
1746 1142
1747 1142
1748 1142
1749 1142
1750 1142
1751 1142
1752 1142
1753 1142
1754 1142
1755 1142
1756 1142
1757 1142
1758 1142
1759 1142
1760 1142
1761 1142
1762 1142
1763 1142
1764 1142
1765 1142
1766 1142
1767 1142
1768 1142
1769 1142
1770 1142
1771 1142
1772 1142
1773 1142
1698 1143
1699 1143
1700 1143
1701 1143
1702 1143
1703 1143
1704 1143
1705 1143
1706 1143
1707 1143
1708 1143
1709 1143
1710 1143
1711 1143
1712 1143
1713 1143
1714 1143
1715 1143
1716 1143
1717 1143
1718 1143
1719 1143
1720 1143
1721 1143
1722 1143
1723 1143
1724 1143
1725 1143
1726 1143
1727 1143
1728 1143
1729 1143
1730 1143
1731 1143
1732 1143
1733 1143
1734 1143
1735 1143
1736 1143
1737 1143
1738 1143
1739 1143
1740 1143
1741 1143
1742 1143
1743 1143
1744 1143
1745 1143
1746 1143
1747 1143
1748 1143
1749 1143
1750 1143
1751 1143
1752 1143
1753 1143
1754 1143
1755 1143
1756 1143
1757 1143
1758 1143
1759 1143
1760 1143
1761 1143
1762 1143
1763 1143
1764 1143
1765 1143
1766 1143
1767 1143
1768 1143
1769 1143
1770 1143
1771 1143
1772 1143
1773 1143
1698 1144
1699 1144
1700 1144
1701 1144
1702 1144
1703 1144
1704 1144
1705 1144
1706 1144
1707 1144
1708 1144
1709 1144
1710 1144
1711 1144
1712 1144
1713 1144
1714 1144
1715 1144
1716 1144
1717 1144
1718 1144
1719 1144
1720 1144
1721 1144
1722 1144
1723 1144
1724 1144
1725 1144
1726 1144
1727 1144
1728 1144
1729 1144
1730 1144
1731 1144
1732 1144
1733 1144
1734 1144
1735 1144
1736 1144
1737 1144
1738 1144
1739 1144
1740 1144
1741 1144
1742 1144
1743 1144
1744 1144
1745 1144
1746 1144
1747 1144
1748 1144
1749 1144
1750 1144
1751 1144
1752 1144
1753 1144
1754 1144
1755 1144
1756 1144
1757 1144
1758 1144
1759 1144
1760 1144
1761 1144
1762 1144
1763 1144
1764 1144
1765 1144
1766 1144
1767 1144
1768 1144
1769 1144
1770 1144
1771 1144
1772 1144
1773 1144
1698 1145
1699 1145
1700 1145
1701 1145
1702 1145
1703 1145
1704 1145
1705 1145
1706 1145
1707 1145
1708 1145
1709 1145
1710 1145
1711 1145
1712 1145
1713 1145
1714 1145
1715 1145
1716 1145
1717 1145
1718 1145
1719 1145
1720 1145
1721 1145
1722 1145
1723 1145
1724 1145
1725 1145
1726 1145
1727 1145
1728 1145
1729 1145
1730 1145
1731 1145
1732 1145
1733 1145
1734 1145
1735 1145
1736 1145
1737 1145
1738 1145
1739 1145
1740 1145
1741 1145
1742 1145
1743 1145
1744 1145
1745 1145
1746 1145
1747 1145
1748 1145
1749 1145
1750 1145
1751 1145
1752 1145
1753 1145
1754 1145
1755 1145
1756 1145
1757 1145
1758 1145
1759 1145
1760 1145
1761 1145
1762 1145
1763 1145
1764 1145
1765 1145
1766 1145
1767 1145
1768 1145
1769 1145
1770 1145
1771 1145
1772 1145
1773 1145
